Grain x, y, Radius, Tesselation area, Stress 22, M22 
0.000728 0.000727 0.000727 0.000002 1474.794447 0.003310
0.002219 0.000761 0.000761 0.000002 333.159034 0.000689
0.003631 0.000653 0.000653 0.000002 0.021170 0.000000
0.005093 0.000780 0.000780 0.000002 219.591373 0.000468
0.006541 0.000642 0.000642 0.000002 0.029727 0.000000
0.007953 0.000776 0.000776 0.000002 429.218393 0.000887
0.009358 0.000636 0.000636 0.000002 158.821653 0.000288
0.010618 0.000619 0.000619 0.000002 0.007613 0.000000
0.012092 0.000842 0.000842 0.000002 198.470041 0.000460
0.013652 0.000714 0.000713 0.000002 0.000000 0.000000
0.015183 0.000808 0.000809 0.000002 312.957515 0.000678
0.016685 0.000698 0.000698 0.000002 79.535800 0.000163
0.018242 0.000862 0.000861 0.000002 0.000000 0.000000
0.019689 0.000587 0.000587 0.000002 481.244413 0.000910
0.021096 0.000818 0.000817 0.000002 0.000000 0.000000
0.022620 0.000705 0.000706 0.000002 189.178740 0.000366
0.024023 0.000696 0.000696 0.000002 246.219000 0.000494
0.025504 0.000783 0.000783 0.000002 152.291110 0.000312
0.026978 0.000690 0.000690 0.000002 0.006737 0.000000
0.028356 0.000686 0.000687 0.000002 128.192314 0.000238
0.029690 0.000648 0.000648 0.000002 347.653898 0.000613
0.031002 0.000661 0.000661 0.000002 32.753827 0.000062
0.032444 0.000770 0.000770 0.000002 398.902730 0.000825
0.033832 0.000626 0.000626 0.000002 96.100415 0.000168
0.035141 0.000684 0.000684 0.000002 87.868995 0.000175
0.036611 0.000955 0.000811 0.000002 5.531372 0.000013
0.038061 0.000667 0.000667 0.000002 323.577517 0.000612
0.039356 0.000628 0.000628 0.000002 163.027575 0.000293
0.040816 0.000867 0.000851 0.000003 114.472896 0.000287
0.042352 0.000694 0.000694 0.000002 115.554172 0.000233
0.043801 0.000756 0.000755 0.000002 2.533196 0.000005
0.045171 0.000622 0.000622 0.000002 96.994814 0.000166
0.046422 0.000629 0.000629 0.000002 -1.904472 -0.000003
0.047767 0.000719 0.000719 0.000002 116.323460 0.000232
0.049059 0.001135 0.000638 0.000002 161.427791 0.000355
0.050355 0.000722 0.000722 0.000002 -0.148762 -0.000000
0.051781 0.000703 0.000703 0.000002 385.807786 0.000735
0.053207 0.000722 0.000722 0.000002 55.496762 0.000104
0.054594 0.000666 0.000666 0.000002 1141.621172 0.002132
0.055968 0.000709 0.000709 0.000002 65.907068 0.000123
0.057452 0.000776 0.000776 0.000002 76.767986 0.000166
0.058957 0.000730 0.000730 0.000002 32.363206 0.000067
0.060332 0.000648 0.000648 0.000002 5.374201 0.000011
0.061774 0.000802 0.000802 0.000002 114.928084 0.000252
0.063237 0.000667 0.000667 0.000002 0.208383 0.000000
0.064716 0.000819 0.000819 0.000002 17.885389 0.000039
0.066178 0.000640 0.000640 0.000002 0.000000 0.000000
0.067684 0.000619 0.000619 0.000002 0.005507 0.000000
0.068876 0.000562 0.000562 0.000001 130.695879 0.000188
0.070122 0.000713 0.000693 0.000002 0.000000 0.000000
0.071597 0.000757 0.000757 0.000002 456.212483 0.000910
0.072978 0.000780 0.000623 0.000002 0.843547 0.000002
0.074272 0.000676 0.000676 0.000002 344.650055 0.000586
0.075655 0.000708 0.000708 0.000002 188.201311 0.000333
0.076916 0.000790 0.000556 0.000002 0.209921 0.000000
0.078244 0.000772 0.000772 0.000002 157.983090 0.000337
0.079787 0.000770 0.000770 0.000002 286.733513 0.000607
0.081267 0.000707 0.000707 0.000002 89.996316 0.000180
0.082782 0.000810 0.000810 0.000002 0.000000 0.000000
0.084370 0.000778 0.000778 0.000002 316.617604 0.000737
0.085866 0.000719 0.000719 0.000002 102.509344 0.000222
0.087416 0.000835 0.000835 0.000002 14.721743 0.000033
0.088951 0.000706 0.000706 0.000002 0.812424 0.000002
0.090502 0.000853 0.000853 0.000002 84.706018 0.000206
0.092154 0.000800 0.000800 0.000002 19.061938 0.000046
0.093696 0.000743 0.000743 0.000002 108.907027 0.000245
0.095253 0.000818 0.000816 0.000002 -1.224491 -0.000003
0.096700 0.000641 0.000641 0.000002 63.935696 0.000119
0.098059 0.000720 0.000720 0.000002 211.465429 0.000420
0.099525 0.000746 0.000746 0.000002 2.150977 0.000005
0.101003 0.000960 0.000747 0.000002 25.864639 0.000057
0.102487 0.000751 0.000751 0.000002 -0.783580 -0.000002
0.103864 0.000811 0.000627 0.000002 0.000000 0.000000
0.105230 0.000734 0.000734 0.000002 65.632916 0.000120
0.106610 0.000649 0.000649 0.000002 0.037124 0.000000
0.107996 0.000739 0.000739 0.000002 21.791747 0.000042
0.109366 0.000622 0.000622 0.000002 0.007817 0.000000
0.110707 0.000696 0.000697 0.000002 115.338720 0.000203
0.112200 0.000829 0.000803 0.000002 0.000000 0.000000
0.113647 0.000651 0.000651 0.000002 15.158390 0.000028
0.114970 0.000673 0.000673 0.000002 83.432209 0.000158
0.116425 0.000848 0.000793 0.000002 0.000000 0.000000
0.118074 0.000826 0.000819 0.000002 35.095415 0.000082
0.119605 0.000716 0.000716 0.000002 281.645814 0.000524
0.120860 0.000540 0.000540 0.000002 0.026774 0.000000
0.122139 0.000976 0.000788 0.000002 1.187614 0.000003
0.123644 0.000736 0.000736 0.000002 11.716455 0.000026
0.125161 0.000782 0.000782 0.000002 57.000985 0.000129
0.126775 0.000818 0.000818 0.000002 144.900799 0.000327
0.128289 0.000694 0.000694 0.000002 0.052196 0.000000
0.129747 0.000758 0.000758 0.000002 -0.100233 -0.000000
0.131228 0.000724 0.000724 0.000002 0.028936 0.000000
0.132753 0.000802 0.000802 0.000002 209.403356 0.000443
0.134225 0.000675 0.000675 0.000002 199.632943 0.000394
0.135730 0.000777 0.000777 0.000002 25.868096 0.000055
0.137198 0.000679 0.000679 0.000002 0.000000 0.000000
0.138699 0.000818 0.000819 0.000002 365.236970 0.000799
0.140241 0.000711 0.000711 0.000002 0.737931 0.000002
0.141702 0.000751 0.000751 0.000002 113.568390 0.000254
0.143341 0.000817 0.000817 0.000002 0.000000 0.000000
0.144919 0.000744 0.000744 0.000002 428.099534 0.000872
0.146333 0.000672 0.000672 0.000002 185.031797 0.000360
0.147797 0.000796 0.000796 0.000002 23.069512 0.000049
0.149311 0.000720 0.000719 0.000002 0.000000 0.000000
0.150691 0.000662 0.000662 0.000002 -0.108065 -0.000000
0.152050 0.000698 0.000698 0.000002 0.000000 0.000000
0.153432 0.000643 0.000643 0.000002 83.620417 0.000134
0.154664 0.000589 0.000590 0.000002 196.125837 0.000300
0.155890 0.000637 0.000637 0.000002 15.771068 0.000026
0.157266 0.000736 0.000736 0.000002 121.821064 0.000223
0.158668 0.000667 0.000667 0.000002 386.642756 0.000766
0.160146 0.000803 0.000793 0.000002 10.963296 0.000024
0.161651 0.000715 0.000715 0.000002 0.000000 0.000000
0.163088 0.000893 0.000720 0.000002 0.000000 0.000000
0.164539 0.000715 0.000715 0.000002 78.022728 0.000173
0.165932 0.001228 0.000770 0.000002 82.752649 0.000198
0.167355 0.000736 0.000736 0.000002 79.306739 0.000172
0.168791 0.000699 0.000699 0.000002 0.001533 0.000000
0.170262 0.000771 0.000771 0.000002 0.000000 0.000000
0.171773 0.000738 0.000738 0.000002 607.751941 0.001215
0.173166 0.000656 0.000656 0.000002 0.033080 0.000000
0.174517 0.000789 0.000697 0.000002 0.000000 0.000000
0.175982 0.000768 0.000768 0.000002 12.908515 0.000028
0.177529 0.000779 0.000779 0.000002 108.737814 0.000234
0.179030 0.000722 0.000723 0.000002 236.188486 0.000456
0.180463 0.000710 0.000710 0.000002 0.000000 0.000000
0.181869 0.000695 0.000695 0.000002 161.389740 0.000320
0.183289 0.000725 0.000725 0.000002 47.765161 0.000086
0.184504 0.000509 0.000510 0.000001 257.606785 0.000366
0.185743 0.000796 0.000762 0.000002 0.000000 0.000000
0.187145 0.000645 0.000645 0.000002 0.019301 0.000000
0.188514 0.000726 0.000726 0.000002 0.202793 0.000000
0.189963 0.000720 0.000720 0.000002 714.922041 0.001374
0.191371 0.000688 0.000688 0.000002 0.041706 0.000000
0.192825 0.000767 0.000767 0.000002 299.265922 0.000591
0.194339 0.000747 0.000748 0.000002 436.402415 0.000901
0.195817 0.000727 0.000727 0.000002 0.037811 0.000000
0.197304 0.000753 0.000753 0.000002 41.554021 0.000084
0.198735 0.000679 0.000679 0.000002 224.684059 0.000388
0.199950 0.000544 0.000544 0.000001 2.318336 0.000003
0.201147 0.000659 0.000659 0.000002 0.000000 0.000000
0.202464 0.000652 0.000653 0.000002 1176.190613 0.002026
0.203833 0.000718 0.000718 0.000002 647.528937 0.001189
0.205224 0.000674 0.000674 0.000002 158.442714 0.000271
0.206471 0.000569 0.000569 0.000002 64.696375 0.000102
0.207732 0.000896 0.000730 0.000002 0.000000 0.000000
0.209037 0.000602 0.000603 0.000002 351.163077 0.000584
0.210326 0.000676 0.000677 0.000002 900.633396 0.001747
0.212061 0.000783 0.000783 0.000002 353.350104 0.000790
0.213461 0.000626 0.000626 0.000002 103.710158 0.000180
0.214688 0.000601 0.000602 0.000002 0.195711 0.000000
0.215940 0.000649 0.000649 0.000002 174.928233 0.000300
0.217256 0.000665 0.000666 0.000002 1679.597643 0.002755
0.218474 0.000556 0.000557 0.000001 337.475136 0.000479
0.219656 0.000928 0.000682 0.000002 0.000000 0.000000
0.221093 0.000732 0.000732 0.000002 251.451694 0.000512
0.222520 0.000696 0.000696 0.000002 309.963688 0.000656
0.001289 0.002092 0.000750 0.000002 1143.151401 0.002609
0.002722 0.002116 0.000684 0.000002 293.326097 0.000533
0.004133 0.001952 0.000736 0.000002 38.047107 0.000074
0.005521 0.002317 0.000700 0.000002 216.487907 0.000444
0.007019 0.002068 0.000819 0.000002 256.693761 0.000514
0.008516 0.002216 0.000686 0.000002 0.000000 0.000000
0.009975 0.001915 0.000784 0.000002 5.261673 0.000011
0.011408 0.002198 0.000677 0.000002 167.092512 0.000339
0.012851 0.002340 0.000772 0.000002 3.118061 0.000007
0.014365 0.002140 0.000754 0.000002 132.993622 0.000279
0.015789 0.002078 0.000599 0.000002 185.696293 0.000333
0.016969 0.001952 0.000588 0.000002 16.082069 0.000029
0.018098 0.002409 0.000630 0.000002 12.243150 0.000022
0.019515 0.002006 0.000843 0.000002 295.393550 0.000617
0.021030 0.002432 0.000731 0.000002 125.336928 0.000232
0.022196 0.001892 0.000555 0.000002 5.536593 0.000009
0.023519 0.002087 0.000783 0.000002 127.554688 0.000232
0.024925 0.002063 0.000623 0.000002 116.775864 0.000202
0.026269 0.002031 0.000682 0.000002 0.000000 0.000000
0.027742 0.002030 0.000791 0.000002 104.177038 0.000205
0.029287 0.001952 0.000718 0.000002 279.841210 0.000545
0.030777 0.002060 0.000756 0.000002 18.888659 0.000038
0.032235 0.002236 0.000712 0.000002 409.990819 0.000778
0.033603 0.001923 0.000692 0.000002 2.080832 0.000004
0.035050 0.002137 0.000772 0.000002 26.968977 0.000054
0.036461 0.002439 0.000671 0.000002 183.174756 0.000349
0.037801 0.002037 0.000728 0.000002 107.558397 0.000198
0.039207 0.001931 0.000683 0.000002 88.951561 0.000181
0.041655 0.002182 0.000709 0.000002 132.352070 0.000281
0.042959 0.001873 0.000632 0.000002 17.443682 0.000029
0.044282 0.002243 0.000742 0.000002 29.496639 0.000056
0.045657 0.001842 0.000690 0.000002 0.568603 0.000001
0.047039 0.001930 0.000695 0.000002 0.000000 0.000000
0.048385 0.002500 0.000765 0.000002 0.000000 0.000000
0.049978 0.002265 0.000818 0.000002 137.882337 0.000282
0.051467 0.002056 0.000686 0.000002 271.764877 0.000478
0.052690 0.001884 0.000549 0.000002 3.314694 0.000005
0.054080 0.002100 0.000858 0.000002 949.804361 0.001957
0.055488 0.001889 0.000566 0.000002 12.256285 0.000020
0.056726 0.002038 0.000680 0.000002 41.323273 0.000077
0.058122 0.002273 0.000736 0.000002 2.292561 0.000005
0.059568 0.002050 0.000725 0.000002 -1.299903 -0.000003
0.061083 0.002284 0.000809 0.000002 130.101156 0.000284
0.062663 0.002112 0.000780 0.000002 1.888834 0.000004
0.064124 0.002255 0.000688 0.000002 1.006229 0.000002
0.065555 0.002142 0.000747 0.000002 2.298987 0.000004
0.066986 0.001774 0.000730 0.000002 0.285230 0.000001
0.068400 0.001714 0.000685 0.000002 33.939761 0.000051
0.069619 0.001862 0.000544 0.000001 -0.026104 -0.000000
0.070815 0.001931 0.000654 0.000002 256.412379 0.000458
0.072228 0.002153 0.000776 0.000002 69.649325 0.000137
0.073515 0.001824 0.000544 0.000001 0.000000 0.000000
0.074675 0.001903 0.000617 0.000002 383.088155 0.000603
0.075893 0.001999 0.000605 0.000002 198.792450 0.000330
0.077323 0.002113 0.000827 0.000002 0.000000 0.000000
0.078969 0.002155 0.000789 0.000002 175.406142 0.000364
0.080355 0.002017 0.000600 0.000002 384.935670 0.000663
0.081555 0.001982 0.000600 0.000002 19.018643 0.000032
0.082842 0.002395 0.000752 0.000002 2.417036 0.000005
0.084307 0.002273 0.000718 0.000002 143.262163 0.000299
0.085684 0.002096 0.000670 0.000002 9.397397 0.000017
0.086963 0.002309 0.000627 0.000002 10.458978 0.000019
0.088189 0.002070 0.000622 0.000002 0.273007 0.000000
0.089547 0.002125 0.000738 0.000002 399.179207 0.000775
0.090992 0.002324 0.000698 0.000002 0.077387 0.000000
0.092364 0.002261 0.000676 0.000002 25.104815 0.000048
0.093741 0.002147 0.000662 0.000002 0.000000 0.000000
0.095031 0.002315 0.000635 0.000002 0.000000 0.000000
0.096344 0.001955 0.000720 0.000002 0.000000 0.000000
0.097734 0.002053 0.000651 0.000002 0.000000 0.000000
0.099174 0.002232 0.000781 0.000002 10.575181 0.000022
0.100585 0.002223 0.000581 0.000002 0.000000 0.000000
0.101896 0.002073 0.000679 0.000002 0.268303 0.000000
0.103244 0.002025 0.000670 0.000002 35.860968 0.000058
0.104570 0.001951 0.000650 0.000001 89.563706 0.000134
0.105851 0.001940 0.000622 0.000002 0.420794 0.000001
0.107212 0.001993 0.000740 0.000002 0.963084 0.000002
0.108711 0.002113 0.000763 0.000002 40.270029 0.000082
0.109949 0.001683 0.000548 0.000001 75.327542 0.000108
0.111119 0.001925 0.000599 0.000002 0.000000 0.000000
0.112319 0.002276 0.000649 0.000002 0.000000 0.000000
0.113658 0.002017 0.000715 0.000002 -0.005889 -0.000000
0.115059 0.002029 0.000686 0.000002 40.654651 0.000081
0.116505 0.002462 0.000823 0.000002 30.142574 0.000063
0.117904 0.002230 0.000595 0.000002 29.086009 0.000055
0.119141 0.002013 0.000661 0.000002 23.610402 0.000042
0.120578 0.001769 0.000717 0.000002 131.782976 0.000245
0.121840 0.002453 0.000718 0.000002 142.750272 0.000264
0.123223 0.002115 0.000706 0.000002 0.000000 0.000000
0.124638 0.002151 0.000683 0.000002 52.894629 0.000099
0.126033 0.002144 0.000702 0.000002 92.532486 0.000176
0.127488 0.002109 0.000658 0.000002 39.727741 0.000074
0.128907 0.002023 0.000761 0.000002 0.000000 0.000000
0.130552 0.002014 0.000727 0.000002 0.000000 0.000000
0.131936 0.002008 0.000655 0.000002 0.000000 0.000000
0.133247 0.002155 0.000639 0.000002 226.686889 0.000393
0.134601 0.001911 0.000617 0.000002 147.712909 0.000261
0.135482 0.002900 0.000708 0.000002 50.307448 0.000092
0.136492 0.001975 0.000644 0.000002 -0.004101 -0.000000
0.137793 0.001984 0.000657 0.000002 0.000000 0.000000
0.139232 0.002201 0.000663 0.000002 310.315102 0.000581
0.140564 0.002074 0.000675 0.000002 2.381751 0.000004
0.141918 0.002170 0.000684 0.000002 38.717169 0.000066
0.143239 0.002313 0.000644 0.000002 154.038269 0.000264
0.144495 0.002059 0.000638 0.000002 247.951691 0.000437
0.145813 0.001929 0.000687 0.000002 133.488503 0.000241
0.147280 0.002129 0.000633 0.000002 0.000000 0.000000
0.148660 0.002076 0.000747 0.000002 37.444128 0.000072
0.150133 0.001939 0.000732 0.000002 0.013513 0.000000
0.151544 0.001979 0.000679 0.000002 0.000000 0.000000
0.152836 0.001767 0.000629 0.000002 66.743884 0.000110
0.154191 0.001818 0.000727 0.000002 172.893974 0.000302
0.155588 0.001913 0.000674 0.000002 49.034501 0.000087
0.156774 0.001883 0.000512 0.000002 0.000000 0.000000
0.158106 0.002035 0.000811 0.000002 292.539157 0.000559
0.159552 0.002086 0.000621 0.000002 0.000000 0.000000
0.161088 0.002124 0.000802 0.000002 0.000000 0.000000
0.162592 0.002284 0.000666 0.000002 10.780132 0.000021
0.163995 0.002077 0.000752 0.000002 16.608849 0.000032
0.165294 0.002435 0.000596 0.000002 75.034634 0.000133
0.166877 0.002395 0.000715 0.000002 0.000000 0.000000
0.168138 0.001875 0.000646 0.000002 102.897094 0.000174
0.169406 0.001855 0.000610 0.000002 0.000000 0.000000
0.171136 0.002064 0.000734 0.000002 418.252412 0.000850
0.172637 0.001924 0.000717 0.000002 0.000000 0.000000
0.174122 0.002174 0.000743 0.000002 20.307787 0.000038
0.175484 0.002068 0.000624 0.000002 -0.019739 -0.000000
0.176856 0.002151 0.000750 0.000002 99.896646 0.000194
0.178377 0.001942 0.000660 0.000002 109.476851 0.000202
0.179786 0.001891 0.000649 0.000002 0.000000 0.000000
0.181319 0.002097 0.000812 0.000002 174.481451 0.000372
0.182825 0.002067 0.000695 0.000002 0.000000 0.000000
0.184339 0.001731 0.000723 0.000002 206.917371 0.000386
0.185452 0.002721 0.000759 0.000002 0.000000 0.000000
0.186709 0.001938 0.000714 0.000002 5.300993 0.000011
0.188090 0.002063 0.000673 0.000002 55.318976 0.000106
0.189395 0.001952 0.000638 0.000002 875.302316 0.001567
0.190798 0.002026 0.000766 0.000002 -0.239477 -0.000000
0.192114 0.001884 0.000557 0.000002 79.224759 0.000136
0.193590 0.001945 0.000639 0.000002 4.516044 0.000008
0.194996 0.002125 0.000779 0.000002 464.035409 0.000910
0.196544 0.002073 0.000770 0.000002 -0.293331 -0.000001
0.197962 0.002036 0.000649 0.000002 5.988423 0.000011
0.199221 0.001884 0.000620 0.000002 320.722925 0.000522
0.200463 0.001746 0.000625 0.000002 0.000000 0.000000
0.201820 0.001845 0.000704 0.000002 1077.211768 0.001780
0.203192 0.001950 0.000672 0.000002 237.977497 0.000412
0.204607 0.001949 0.000737 0.000002 499.422469 0.000900
0.206059 0.001795 0.000723 0.000002 205.975677 0.000349
0.207264 0.002148 0.000526 0.000001 0.000000 0.000000
0.208304 0.002017 0.000521 0.000001 0.000000 0.000000
0.209536 0.001827 0.000720 0.000002 1142.664719 0.002026
0.211028 0.001938 0.000767 0.000002 614.899474 0.001251
0.212516 0.002244 0.000748 0.000002 94.074411 0.000195
0.213922 0.001875 0.000706 0.000002 0.006543 0.000000
0.215324 0.001846 0.000697 0.000002 110.758355 0.000200
0.217035 0.002010 0.000697 0.000002 1184.929542 0.002228
0.218271 0.001677 0.000583 0.000002 90.673518 0.000139
0.219380 0.002339 0.000709 0.000002 162.431385 0.000271
0.220678 0.002026 0.000627 0.000002 96.225240 0.000168
0.222119 0.002159 0.000820 0.000002 263.178878 0.000631
0.223967 0.001169 0.000818 0.000001 64.584907 0.000043
0.000707 0.003425 0.000705 0.000002 958.424992 0.002081
0.002048 0.003238 0.000625 0.000002 384.487585 0.000681
0.003522 0.003317 0.000759 0.000002 87.650319 0.000168
0.004970 0.003625 0.000720 0.000002 204.276273 0.000413
0.006411 0.003487 0.000725 0.000002 132.724154 0.000255
0.007757 0.003275 0.000596 0.000002 55.163042 0.000085
0.008985 0.003468 0.000647 0.000002 1.827399 0.000003
0.010456 0.003688 0.000839 0.000002 21.221166 0.000048
0.011925 0.003425 0.000654 0.000002 23.669643 0.000042
0.013190 0.003843 0.000679 0.000002 20.592441 0.000041
0.014539 0.003579 0.000695 0.000002 43.463342 0.000085
0.016003 0.003436 0.000777 0.000002 16.985030 0.000035
0.017570 0.003778 0.000827 0.000002 68.585973 0.000144
0.018973 0.003378 0.000632 0.000002 171.447437 0.000289
0.020182 0.003428 0.000577 0.000002 12.394203 0.000019
0.021333 0.003759 0.000621 0.000001 124.674139 0.000186
0.022475 0.003122 0.000687 0.000002 0.000000 0.000000
0.024242 0.003253 0.000588 0.000002 88.959107 0.000155
0.025557 0.003256 0.000727 0.000002 256.405706 0.000446
0.026973 0.003295 0.000690 0.000002 47.535131 0.000089
0.028667 0.003248 0.000719 0.000002 288.950168 0.000557
0.030089 0.003351 0.000707 0.000002 0.047578 0.000000
0.031497 0.003445 0.000704 0.000002 256.249798 0.000449
0.032881 0.003467 0.000678 0.000002 127.126809 0.000218
0.034184 0.003255 0.000642 0.000002 0.000000 0.000000
0.035586 0.003633 0.000809 0.000002 61.771621 0.000121
0.037261 0.003605 0.000743 0.000002 0.000000 0.000000
0.038576 0.003154 0.000632 0.000002 100.103780 0.000176
0.039956 0.003150 0.000748 0.000002 9.312265 0.000020
0.041343 0.003552 0.000696 0.000002 213.144388 0.000388
0.042616 0.003156 0.000637 0.000002 0.000000 0.000000
0.043790 0.003464 0.000575 0.000002 0.000000 0.000000
0.045407 0.003321 0.000800 0.000002 0.000000 0.000000
0.046976 0.003347 0.000722 0.000002 0.000000 0.000000
0.048244 0.003802 0.000542 0.000002 -0.633145 -0.000001
0.049484 0.003703 0.000701 0.000002 69.895224 0.000130
0.051025 0.003386 0.000715 0.000002 249.901197 0.000481
0.052353 0.003060 0.000652 0.000002 45.859699 0.000080
0.053642 0.003672 0.000775 0.000002 744.819086 0.001613
0.055283 0.003153 0.000714 0.000002 0.000000 0.000000
0.056769 0.003502 0.000784 0.000002 0.000000 0.000000
0.058154 0.003613 0.000605 0.000002 0.000000 0.000000
0.059410 0.003428 0.000662 0.000002 0.000000 0.000000
0.060754 0.003779 0.000722 0.000002 0.000000 0.000000
0.062017 0.003348 0.000605 0.000002 0.000000 0.000000
0.063396 0.003537 0.000787 0.000002 0.000000 0.000000
0.064917 0.003482 0.000736 0.000002 0.000000 0.000000
0.066477 0.003237 0.000683 0.000002 0.000000 0.000000
0.067744 0.002922 0.000622 0.000002 -0.176308 -0.000000
0.069017 0.002899 0.000652 0.000002 5.364427 0.000009
0.070405 0.003326 0.000800 0.000002 159.662067 0.000363
0.071957 0.003701 0.000796 0.000002 0.000000 0.000000
0.073378 0.003127 0.000731 0.000002 54.644868 0.000105
0.074853 0.003258 0.000750 0.000002 293.904647 0.000562
0.076273 0.003217 0.000671 0.000002 117.515772 0.000212
0.077558 0.003629 0.000680 0.000002 59.442597 0.000109
0.078832 0.003534 0.000598 0.000002 156.170538 0.000281
0.080173 0.003359 0.000755 0.000002 356.200041 0.000665
0.081648 0.003300 0.000721 0.000002 18.703906 0.000036
0.082951 0.003849 0.000693 0.000002 3.583453 0.000007
0.084354 0.003707 0.000717 0.000002 1.004560 0.000002
0.085719 0.003439 0.000674 0.000002 0.917320 0.000002
0.087026 0.003604 0.000644 0.000002 0.000000 0.000000
0.088509 0.003500 0.000843 0.000002 0.107078 0.000000
0.090013 0.003444 0.000661 0.000002 2.998167 0.000006
0.091479 0.003798 0.000847 0.000002 3.604555 0.000008
0.092923 0.003450 0.000638 0.000002 41.809452 0.000075
0.094253 0.003404 0.000693 0.000002 0.000000 0.000000
0.095552 0.003619 0.000622 0.000002 46.129890 0.000083
0.097028 0.003383 0.000853 0.000002 0.000000 0.000000
0.098574 0.003609 0.000686 0.000002 0.000000 0.000000
0.100086 0.003544 0.000817 0.000002 1.107278 0.000002
0.101533 0.003375 0.000640 0.000002 0.129308 0.000000
0.102787 0.003334 0.000614 0.000002 0.000000 0.000000
0.103987 0.003071 0.000613 0.000002 163.783437 0.000257
0.105245 0.003045 0.000636 0.000002 0.000000 0.000000
0.106508 0.003159 0.000622 0.000002 0.000000 0.000000
0.107960 0.003415 0.000740 0.000002 31.121058 0.000062
0.109266 0.003882 0.000646 0.000002 0.000000 0.000000
0.110243 0.002920 0.000725 0.000002 0.000000 0.000000
0.111519 0.003223 0.000587 0.000001 0.000000 0.000000
0.113000 0.003504 0.000755 0.000002 4.258548 0.000008
0.114457 0.003296 0.000716 0.000002 0.000000 0.000000
0.115764 0.003759 0.000670 0.000002 0.000000 0.000000
0.117122 0.003835 0.000681 0.000002 6.544353 0.000012
0.118504 0.003430 0.000747 0.000002 0.000000 0.000000
0.120019 0.003170 0.000791 0.000002 12.871186 0.000026
0.121333 0.003699 0.000625 0.000002 84.692461 0.000140
0.122669 0.003529 0.000641 0.000002 201.984908 0.000321
0.123979 0.003345 0.000681 0.000002 1.144053 0.000002
0.125401 0.003445 0.000745 0.000002 -0.570357 -0.000001
0.126870 0.003348 0.000727 0.000002 0.000363 0.000000
0.128294 0.003348 0.000698 0.000002 0.128970 0.000000
0.129758 0.003313 0.000766 0.000002 0.725168 0.000001
0.131147 0.003235 0.000625 0.000002 1.433418 0.000003
0.132530 0.003361 0.000763 0.000002 63.757951 0.000120
0.134122 0.003130 0.000671 0.000002 67.232893 0.000112
0.134976 0.004284 0.000764 0.000002 117.706515 0.000235
0.136854 0.003295 0.000721 0.000002 0.070613 0.000000
0.138327 0.003290 0.000753 0.000002 0.000000 0.000000
0.139821 0.003528 0.000754 0.000002 0.000000 0.000000
0.141187 0.003272 0.000636 0.000002 0.000000 0.000000
0.142363 0.003311 0.000541 0.000002 4.777149 0.000007
0.143562 0.003613 0.000695 0.000002 89.032790 0.000155
0.144943 0.003325 0.000705 0.000002 105.713525 0.000194
0.146428 0.003206 0.000730 0.000002 0.000000 0.000000
0.147954 0.003473 0.000817 0.000002 56.500734 0.000117
0.149518 0.003269 0.000723 0.000002 86.192103 0.000172
0.151003 0.003342 0.000764 0.000002 3.691599 0.000008
0.152531 0.003141 0.000778 0.000002 31.046718 0.000059
0.153943 0.003155 0.000634 0.000002 170.730108 0.000331
0.155377 0.003356 0.000784 0.000002 139.780414 0.000285
0.157003 0.003089 0.000715 0.000002 0.000000 0.000000
0.158711 0.003458 0.000734 0.000002 50.536175 0.000113
0.160257 0.003509 0.000813 0.000002 0.000000 0.000000
0.161794 0.003473 0.000720 0.000002 0.000000 0.000000
0.163120 0.003506 0.000607 0.000002 0.000000 0.000000
0.164486 0.003522 0.000758 0.000002 43.513384 0.000080
0.165998 0.003543 0.000717 0.000002 1.534996 0.000003
0.167344 0.003666 0.000635 0.000002 14.629644 0.000024
0.168652 0.003184 0.000760 0.000002 -0.184768 -0.000000
0.170174 0.003211 0.000763 0.000002 104.711394 0.000209
0.171677 0.003412 0.000718 0.000002 70.838751 0.000137
0.173144 0.003306 0.000753 0.000002 0.000000 0.000000
0.174552 0.003496 0.000638 0.000002 0.000000 0.000000
0.176032 0.003458 0.000795 0.000002 10.543886 0.000021
0.177534 0.003370 0.000645 0.000002 17.671107 0.000034
0.178920 0.003214 0.000723 0.000002 -0.560260 -0.000001
0.180388 0.003352 0.000751 0.000002 247.435930 0.000519
0.182200 0.003495 0.000841 0.000002 0.000000 0.000000
0.183808 0.003013 0.000665 0.000002 131.358676 0.000253
0.184936 0.004166 0.000750 0.000002 0.000000 0.000000
0.186340 0.003733 0.000584 0.000002 37.251513 0.000067
0.187583 0.003354 0.000715 0.000002 0.000000 0.000000
0.189610 0.003339 0.000766 0.000002 478.348110 0.001064
0.191139 0.003550 0.000778 0.000002 34.632734 0.000073
0.192558 0.003079 0.000717 0.000002 8.644136 0.000017
0.194012 0.003306 0.000755 0.000002 1.979048 0.000004
0.195361 0.003457 0.000603 0.000002 345.411604 0.000609
0.196710 0.003589 0.000754 0.000002 285.044210 0.000573
0.198243 0.003449 0.000787 0.000002 163.787990 0.000341
0.199692 0.003117 0.000700 0.000002 197.727549 0.000365
0.200996 0.002886 0.000625 0.000002 1283.571995 0.002171
0.202363 0.003243 0.000774 0.000002 0.000000 0.000000
0.203771 0.003123 0.000636 0.000002 219.501493 0.000387
0.205093 0.003298 0.000697 0.000002 524.614466 0.000922
0.206389 0.003092 0.000615 0.000002 14.828015 0.000024
0.207571 0.003276 0.000581 0.000001 73.472038 0.000107
0.208920 0.003186 0.000772 0.000002 850.500725 0.001565
0.210405 0.003284 0.000716 0.000002 620.430035 0.001253
0.211805 0.003510 0.000703 0.000002 137.631928 0.000270
0.213278 0.003620 0.000774 0.000002 391.080182 0.000844
0.214698 0.003128 0.000730 0.000002 2.671860 0.000005
0.216105 0.003026 0.000682 0.000002 1262.642076 0.002190
0.218079 0.003033 0.000765 0.000002 422.502117 0.000775
0.219472 0.003605 0.000560 0.000002 29.236958 0.000049
0.220666 0.003320 0.000667 0.000002 49.122435 0.000096
0.222446 0.003717 0.000773 0.000002 166.324121 0.000403
0.223860 0.002636 0.000652 0.000002 0.000000 0.000000
0.000802 0.004921 0.000795 0.000002 895.174094 0.001924
0.002389 0.004591 0.000770 0.000002 265.820907 0.000519
0.003790 0.004640 0.000591 0.000002 0.000000 0.000000
0.005057 0.005083 0.000740 0.000002 133.215411 0.000265
0.006514 0.004933 0.000725 0.000002 86.187471 0.000161
0.007748 0.004466 0.000594 0.000002 0.000000 0.000000
0.008969 0.004784 0.000666 0.000002 0.000000 0.000000
0.010289 0.005254 0.000736 0.000002 0.000000 0.000000
0.011673 0.004769 0.000711 0.000002 0.000000 0.000000
0.013911 0.005027 0.000706 0.000002 0.000000 0.000000
0.015299 0.004757 0.000707 0.000002 113.997385 0.000215
0.016601 0.004823 0.000598 0.000002 10.795310 0.000019
0.017816 0.005289 0.000703 0.000002 28.593586 0.000050
0.019148 0.004737 0.000739 0.000002 1.329554 0.000003
0.020462 0.004593 0.000583 0.000002 0.000000 0.000000
0.022161 0.004738 0.000661 0.000002 101.483744 0.000183
0.023468 0.004304 0.000717 0.000002 2.258081 0.000004
0.024922 0.004610 0.000769 0.000002 0.000000 0.000000
0.026375 0.004534 0.000686 0.000002 0.000000 0.000000
0.027828 0.004473 0.000766 0.000002 156.808387 0.000298
0.029302 0.004516 0.000700 0.000002 65.995898 0.000122
0.030729 0.004661 0.000734 0.000002 312.410472 0.000547
0.032161 0.004607 0.000632 0.000002 0.000000 0.000000
0.033663 0.004624 0.000718 0.000002 57.122578 0.000101
0.034959 0.004904 0.000608 0.000002 86.553552 0.000144
0.036292 0.004882 0.000624 0.000002 0.000000 0.000000
0.037555 0.004942 0.000622 0.000002 0.000000 0.000000
0.038914 0.004528 0.000783 0.000002 97.531373 0.000195
0.040341 0.004486 0.000641 0.000002 5.175089 0.000009
0.041625 0.004940 0.000721 0.000002 162.304934 0.000286
0.043046 0.004587 0.000736 0.000002 0.000000 0.000000
0.044498 0.004513 0.000691 0.000002 33.324790 0.000060
0.046150 0.004574 0.000655 0.000002 0.000000 0.000000
0.047478 0.004761 0.000682 0.000002 0.000000 0.000000
0.049022 0.004996 0.000673 0.000002 0.000000 0.000000
0.050499 0.004804 0.000797 0.000002 314.689667 0.000701
0.052089 0.004532 0.000785 0.000002 0.000000 0.000000
0.053595 0.005233 0.000788 0.000002 241.029334 0.000521
0.054831 0.004453 0.000649 0.000002 16.004716 0.000028
0.056021 0.004865 0.000611 0.000002 45.132280 0.000080
0.057365 0.004915 0.000734 0.000002 0.512816 0.000001
0.058875 0.004803 0.000780 0.000002 0.000000 0.000000
0.060291 0.005140 0.000664 0.000002 0.000000 0.000000
0.061729 0.004927 0.000781 0.000002 0.000000 0.000000
0.063230 0.005031 0.000716 0.000002 0.000000 0.000000
0.064682 0.004964 0.000736 0.000002 0.000000 0.000000
0.065919 0.004412 0.000617 0.000002 0.000000 0.000000
0.067113 0.004390 0.000540 0.000001 -1.082497 -0.000002
0.068365 0.004134 0.000738 0.000002 0.000000 0.000000
0.069783 0.004859 0.000854 0.000002 0.000000 0.000000
0.071272 0.004988 0.000639 0.000002 0.000000 0.000000
0.072532 0.005007 0.000621 0.000002 32.929675 0.000053
0.073745 0.004503 0.000692 0.000002 0.000000 0.000000
0.075087 0.004645 0.000657 0.000002 181.202061 0.000310
0.076515 0.004638 0.000771 0.000002 0.000000 0.000000
0.078001 0.004997 0.000758 0.000002 2.966603 0.000006
0.079500 0.004723 0.000766 0.000002 355.260512 0.000728
0.080991 0.004590 0.000723 0.000002 55.316408 0.000110
0.082354 0.005174 0.000759 0.000002 15.090601 0.000030
0.083884 0.005085 0.000736 0.000002 0.000000 0.000000
0.085226 0.004779 0.000636 0.000002 -0.048660 -0.000000
0.086599 0.004937 0.000747 0.000002 32.108855 0.000060
0.087933 0.004816 0.000593 0.000002 0.000000 0.000000
0.089603 0.004781 0.000699 0.000002 0.000000 0.000000
0.090897 0.005168 0.000636 0.000002 0.000000 0.000000
0.092339 0.005350 0.000817 0.000002 0.000000 0.000000
0.093531 0.004548 0.000618 0.000002 -0.867753 -0.000001
0.094787 0.004635 0.000641 0.000002 0.000000 0.000000
0.096232 0.004874 0.000806 0.000002 17.063429 0.000034
0.097772 0.004775 0.000723 0.000002 0.000000 0.000000
0.099286 0.004806 0.000677 0.000002 0.000000 0.000000
0.100690 0.004915 0.000679 0.000002 0.000000 0.000000
0.102233 0.004622 0.000787 0.000002 0.000000 0.000000
0.103837 0.004493 0.000818 0.000002 210.006947 0.000433
0.105396 0.004359 0.000687 0.000002 0.000000 0.000000
0.106912 0.004495 0.000765 0.000002 17.290504 0.000033
0.108288 0.005029 0.000709 0.000002 0.000000 0.000000
0.109679 0.005187 0.000686 0.000002 0.000000 0.000000
0.110674 0.004249 0.000670 0.000002 0.000000 0.000000
0.111937 0.004331 0.000591 0.000002 0.000000 0.000000
0.113459 0.004939 0.000746 0.000002 24.221727 0.000051
0.114918 0.004859 0.000715 0.000002 0.000000 0.000000
0.116362 0.005014 0.000721 0.000002 0.000000 0.000000
0.118086 0.004791 0.000677 0.000002 0.000000 0.000000
0.119445 0.004542 0.000696 0.000002 0.000000 0.000000
0.120753 0.004798 0.000595 0.000002 0.000000 0.000000
0.122128 0.004745 0.000690 0.000002 331.031166 0.000538
0.123401 0.004557 0.000581 0.000002 0.000000 0.000000
0.124680 0.004695 0.000697 0.000002 0.000000 0.000000
0.125623 0.005622 0.000622 0.000002 0.000000 0.000000
0.126301 0.004578 0.000622 0.000002 0.000000 0.000000
0.127625 0.004558 0.000673 0.000002 0.000000 0.000000
0.129029 0.004614 0.000724 0.000002 0.000000 0.000000
0.130700 0.004582 0.000790 0.000002 0.000000 0.000000
0.132245 0.004855 0.000758 0.000002 24.634339 0.000050
0.133562 0.004329 0.000650 0.000002 0.000000 0.000000
0.135018 0.005724 0.000677 0.000002 119.083872 0.000222
0.136228 0.005047 0.000702 0.000002 11.441786 0.000023
0.137491 0.004526 0.000664 0.000002 -0.131168 -0.000000
0.138880 0.004682 0.000733 0.000002 0.000000 0.000000
0.140283 0.004927 0.000691 0.000002 29.736127 0.000057
0.141544 0.004495 0.000636 0.000002 0.000000 0.000000
0.142890 0.004983 0.000788 0.000002 0.000000 0.000000
0.144374 0.004713 0.000672 0.000002 0.000000 0.000000
0.145751 0.004449 0.000680 0.000002 4.464258 0.000008
0.147113 0.004766 0.000719 0.000002 60.231086 0.000113
0.148573 0.004856 0.000698 0.000002 229.555366 0.000440
0.149960 0.004580 0.000660 0.000002 0.000000 0.000000
0.151268 0.004817 0.000655 0.000002 0.000000 0.000000
0.152421 0.004464 0.000550 0.000002 0.000000 0.000000
0.153715 0.004509 0.000739 0.000002 116.954444 0.000220
0.155115 0.004748 0.000633 0.000002 157.228078 0.000290
0.156430 0.004386 0.000689 0.000002 0.000000 0.000000
0.157875 0.004689 0.000754 0.000002 68.021180 0.000150
0.159405 0.005050 0.000789 0.000002 0.000000 0.000000
0.161051 0.005011 0.000841 0.000002 0.000000 0.000000
0.162455 0.004631 0.000612 0.000002 0.000000 0.000000
0.163807 0.004946 0.000777 0.000002 0.000000 0.000000
0.165262 0.004744 0.000689 0.000002 0.000000 0.000000
0.166638 0.004768 0.000664 0.000002 0.000000 0.000000
0.168079 0.004746 0.000672 0.000002 0.000000 0.000000
0.169390 0.004416 0.000675 0.000002 0.000000 0.000000
0.170855 0.004643 0.000763 0.000002 20.455361 0.000040
0.172355 0.004594 0.000644 0.000002 0.000000 0.000000
0.173770 0.004600 0.000684 0.000002 0.000000 0.000000
0.175168 0.004672 0.000664 0.000002 0.000000 0.000000
0.176687 0.004828 0.000724 0.000002 5.973906 0.000013
0.178094 0.004595 0.000702 0.000002 0.200833 0.000000
0.179566 0.004634 0.000771 0.000002 0.000000 0.000000
0.181069 0.004624 0.000692 0.000002 70.868551 0.000138
0.182364 0.005085 0.000683 0.000002 279.283095 0.000464
0.183486 0.004316 0.000677 0.000002 0.000000 0.000000
0.186158 0.005025 0.000721 0.000002 103.113622 0.000189
0.187530 0.004745 0.000648 0.000002 0.000000 0.000000
0.188818 0.004515 0.000653 0.000002 487.750418 0.000915
0.190172 0.004828 0.000736 0.000002 0.000000 0.000000
0.191711 0.004851 0.000635 0.000002 0.000000 0.000000
0.193071 0.004501 0.000766 0.000002 0.000000 0.000000
0.194756 0.004555 0.000651 0.000002 253.639540 0.000470
0.196055 0.004871 0.000686 0.000002 377.140281 0.000728
0.197571 0.004846 0.000763 0.000002 0.000000 0.000000
0.198783 0.005577 0.000649 0.000002 0.000000 0.000000
0.199404 0.004427 0.000641 0.000002 52.501740 0.000102
0.201175 0.004336 0.000837 0.000002 779.606397 0.001745
0.202737 0.004759 0.000782 0.000002 103.027759 0.000234
0.204209 0.004417 0.000730 0.000002 665.025308 0.001316
0.205623 0.004597 0.000695 0.000002 -3.237871 -0.000006
0.206944 0.004336 0.000651 0.000002 0.000000 0.000000
0.208280 0.004503 0.000693 0.000002 616.909667 0.001113
0.209738 0.004609 0.000769 0.000002 618.468311 0.001206
0.211179 0.004741 0.000679 0.000002 129.476773 0.000231
0.212583 0.004962 0.000737 0.000002 166.596309 0.000327
0.214282 0.004905 0.000857 0.000002 178.630777 0.000422
0.215757 0.004374 0.000711 0.000002 1018.545679 0.001982
0.217017 0.003917 0.000592 0.000002 104.638347 0.000181
0.218509 0.004466 0.000732 0.000002 383.793952 0.000705
0.220557 0.004643 0.000661 0.000002 0.000000 0.000000
0.221942 0.005158 0.000754 0.000002 85.081702 0.000179
0.223450 0.004742 0.000662 0.000002 0.000000 0.000000
0.000679 0.006333 0.000624 0.000002 1090.464180 0.001844
0.001850 0.005874 0.000622 0.000002 42.703301 0.000071
0.003222 0.005814 0.000710 0.000002 106.867359 0.000197
0.004524 0.006475 0.000751 0.000002 98.939678 0.000204
0.006054 0.006346 0.000761 0.000002 105.953643 0.000216
0.007285 0.007148 0.000705 0.000002 71.614137 0.000130
0.007567 0.005821 0.000652 0.000002 0.000000 0.000000
0.008834 0.006089 0.000640 0.000002 0.000000 0.000000
0.011466 0.006201 0.000726 0.000002 27.806580 0.000050
0.012713 0.005653 0.000634 0.000002 0.000000 0.000000
0.013827 0.006536 0.000770 0.000002 0.000000 0.000000
0.015914 0.006052 0.000728 0.000002 31.460858 0.000063
0.017217 0.006504 0.000651 0.000002 0.000000 0.000000
0.018719 0.006268 0.000625 0.000002 0.000000 0.000000
0.020114 0.005951 0.000804 0.000002 0.000000 0.000000
0.021620 0.005989 0.000702 0.000002 0.000000 0.000000
0.023026 0.005827 0.000697 0.000002 0.000000 0.000000
0.024434 0.006018 0.000721 0.000002 0.000000 0.000000
0.025778 0.005745 0.000628 0.000002 0.000000 0.000000
0.027076 0.005696 0.000671 0.000002 170.250111 0.000314
0.028607 0.005836 0.000792 0.000002 32.401268 0.000066
0.030066 0.005881 0.000654 0.000002 322.671809 0.000561
0.031499 0.005802 0.000642 0.000002 147.166991 0.000233
0.032823 0.005745 0.000683 0.000002 0.000000 0.000000
0.034202 0.006008 0.000718 0.000002 0.000000 0.000000
0.035611 0.005971 0.000643 0.000002 0.000000 0.000000
0.036938 0.006075 0.000668 0.000002 0.000000 0.000000
0.038468 0.006051 0.000803 0.000002 0.000000 0.000000
0.039923 0.005742 0.000676 0.000002 0.000000 0.000000
0.041118 0.006140 0.000581 0.000002 48.838596 0.000077
0.042594 0.005884 0.000632 0.000002 135.556070 0.000215
0.043916 0.005771 0.000695 0.000002 32.264965 0.000054
0.045333 0.005687 0.000724 0.000002 0.000000 0.000000
0.046729 0.005905 0.000685 0.000002 0.000000 0.000000
0.048018 0.005929 0.000603 0.000002 0.000000 0.000000
0.049246 0.006468 0.000736 0.000002 0.000000 0.000000
0.050762 0.006356 0.000777 0.000002 375.784269 0.000859
0.052355 0.006256 0.000820 0.000002 0.000000 0.000000
0.053842 0.006825 0.000760 0.000002 0.000000 0.000000
0.055018 0.005854 0.000765 0.000002 225.753672 0.000444
0.056511 0.006140 0.000755 0.000002 0.769218 0.000002
0.058018 0.006263 0.000757 0.000002 134.403972 0.000277
0.059573 0.006468 0.000804 0.000002 38.520344 0.000082
0.061071 0.006253 0.000684 0.000002 0.000000 0.000000
0.062422 0.006196 0.000647 0.000002 0.000000 0.000000
0.063861 0.006425 0.000802 0.000002 0.000000 0.000000
0.065468 0.006301 0.000808 0.000002 6.547101 0.000014
0.066593 0.005437 0.000609 0.000001 88.876004 0.000133
0.067804 0.005364 0.000604 0.000002 0.000000 0.000000
0.068806 0.006274 0.000733 0.000002 0.000000 0.000000
0.070550 0.006155 0.000652 0.000002 0.000000 0.000000
0.071882 0.006153 0.000670 0.000002 0.000000 0.000000
0.073210 0.006088 0.000655 0.000002 17.580751 0.000029
0.074445 0.005754 0.000624 0.000002 0.000000 0.000000
0.075693 0.005769 0.000620 0.000002 10.416688 0.000017
0.076981 0.006057 0.000700 0.000002 50.582448 0.000085
0.078200 0.006329 0.000546 0.000002 0.000000 0.000000
0.079498 0.006241 0.000753 0.000002 246.713715 0.000476
0.080972 0.006046 0.000732 0.000002 0.000000 0.000000
0.082998 0.006307 0.000544 0.000002 19.489372 0.000034
0.084212 0.006735 0.000743 0.000002 0.000000 0.000000
0.085698 0.006221 0.000822 0.000002 33.866362 0.000069
0.087257 0.006272 0.000737 0.000002 0.000000 0.000000
0.088695 0.005917 0.000743 0.000002 0.000000 0.000000
0.090123 0.006299 0.000735 0.000002 0.000000 0.000000
0.091479 0.006518 0.000633 0.000002 0.000000 0.000000
0.092872 0.006711 0.000588 0.000002 0.000000 0.000000
0.093792 0.005823 0.000682 0.000002 0.955434 0.000002
0.095141 0.005896 0.000668 0.000002 0.000000 0.000000
0.096986 0.006117 0.000648 0.000002 0.000000 0.000000
0.098382 0.006104 0.000739 0.000002 43.644303 0.000083
0.099890 0.006124 0.000768 0.000002 0.000000 0.000000
0.101612 0.006128 0.000842 0.000002 0.000000 0.000000
0.103260 0.006003 0.000798 0.000002 93.148859 0.000205
0.104655 0.005681 0.000625 0.000002 0.000000 0.000000
0.106016 0.005698 0.000735 0.000002 0.000000 0.000000
0.107368 0.006008 0.000632 0.000002 0.000000 0.000000
0.108827 0.006282 0.000654 0.000002 0.000000 0.000000
0.110393 0.006475 0.000785 0.000002 0.000000 0.000000
0.111356 0.005420 0.000643 0.000002 0.000000 0.000000
0.112552 0.006045 0.000683 0.000002 0.000000 0.000000
0.114158 0.006289 0.000773 0.000002 89.160539 0.000180
0.115629 0.006232 0.000700 0.000002 112.168091 0.000205
0.117144 0.006209 0.000707 0.000002 104.120739 0.000193
0.118522 0.006068 0.000672 0.000002 0.000000 0.000000
0.119966 0.005916 0.000767 0.000002 3.307945 0.000006
0.121484 0.006038 0.000755 0.000002 145.100811 0.000275
0.123058 0.005859 0.000762 0.000002 102.853556 0.000202
0.124477 0.006343 0.000729 0.000002 0.000000 0.000000
0.126009 0.006963 0.000772 0.000002 0.000000 0.000000
0.126950 0.005748 0.000671 0.000002 0.000000 0.000000
0.128437 0.006001 0.000781 0.000002 0.000000 0.000000
0.129820 0.005655 0.000584 0.000002 0.000000 0.000000
0.130987 0.005941 0.000596 0.000002 0.000000 0.000000
0.132211 0.006258 0.000646 0.000002 73.913413 0.000122
0.133558 0.005716 0.000735 0.000002 0.000000 0.000000
0.134405 0.006962 0.000705 0.000002 34.794432 0.000062
0.136222 0.006484 0.000735 0.000002 0.000000 0.000000
0.137660 0.005966 0.000776 0.000002 0.000000 0.000000
0.139224 0.006095 0.000721 0.000002 0.000000 0.000000
0.140663 0.006297 0.000731 0.000002 0.000000 0.000000
0.142083 0.006224 0.000682 0.000002 0.000000 0.000000
0.143708 0.006189 0.000669 0.000002 0.000000 0.000000
0.145042 0.005890 0.000681 0.000002 131.085111 0.000235
0.146351 0.005875 0.000612 0.000002 0.000000 0.000000
0.147743 0.006047 0.000709 0.000002 57.465129 0.000108
0.149339 0.005987 0.000669 0.000002 0.000000 0.000000
0.150669 0.005989 0.000661 0.000002 0.000000 0.000000
0.151749 0.006716 0.000641 0.000002 147.179245 0.000268
0.152717 0.005724 0.000745 0.000002 0.000000 0.000000
0.154260 0.005923 0.000777 0.000002 33.834944 0.000068
0.155950 0.005895 0.000786 0.000002 242.972905 0.000497
0.157443 0.006099 0.000721 0.000002 106.959881 0.000219
0.158883 0.006374 0.000621 0.000002 0.000000 0.000000
0.160243 0.006366 0.000723 0.000002 0.000000 0.000000
0.161732 0.006487 0.000743 0.000002 0.000000 0.000000
0.163118 0.006231 0.000663 0.000002 0.000000 0.000000
0.164534 0.006285 0.000740 0.000002 0.000000 0.000000
0.165932 0.005938 0.000680 0.000002 0.000000 0.000000
0.167287 0.005938 0.000674 0.000002 0.000000 0.000000
0.168581 0.006345 0.000682 0.000002 18.708617 0.000034
0.169929 0.005831 0.000732 0.000002 0.000000 0.000000
0.171751 0.005759 0.000669 0.000002 0.000000 0.000000
0.173015 0.005649 0.000587 0.000002 0.000000 0.000000
0.174386 0.005911 0.000764 0.000002 0.000000 0.000000
0.175688 0.006547 0.000686 0.000002 0.000000 0.000000
0.177149 0.006272 0.000792 0.000002 0.000000 0.000000
0.178557 0.005870 0.000654 0.000002 241.766826 0.000447
0.179909 0.006044 0.000680 0.000002 71.197459 0.000131
0.181280 0.005971 0.000669 0.000002 0.000000 0.000000
0.182498 0.006336 0.000575 0.000001 5.895692 0.000008
0.183545 0.005667 0.000625 0.000002 0.000000 0.000000
0.184867 0.005615 0.000697 0.000002 0.000000 0.000000
0.187135 0.006043 0.000690 0.000002 289.574673 0.000535
0.188512 0.005836 0.000703 0.000002 127.145918 0.000268
0.191012 0.006060 0.000754 0.000002 77.105142 0.000156
0.192549 0.006066 0.000784 0.000002 103.849550 0.000208
0.194057 0.005770 0.000752 0.000002 85.387648 0.000182
0.195535 0.006273 0.000810 0.000002 756.221083 0.001600
0.197010 0.006163 0.000668 0.000002 8.663390 0.000016
0.198193 0.006731 0.000645 0.000002 72.575277 0.000121
0.199465 0.006751 0.000628 0.000002 1452.998995 0.002398
0.200187 0.005578 0.000751 0.000002 0.000000 0.000000
0.201660 0.005843 0.000746 0.000002 410.036243 0.000920
0.203136 0.006350 0.000806 0.000002 307.216623 0.000662
0.204649 0.005864 0.000784 0.000002 491.806298 0.001001
0.206061 0.005849 0.000629 0.000002 36.913229 0.000065
0.207425 0.005661 0.000748 0.000002 519.606291 0.000941
0.208906 0.005878 0.000749 0.000002 675.898117 0.001262
0.210435 0.005903 0.000701 0.000002 204.960803 0.000350
0.211728 0.005981 0.000594 0.000002 291.735811 0.000501
0.213367 0.006202 0.000730 0.000002 158.656368 0.000304
0.214710 0.006519 0.000650 0.000002 351.721736 0.000644
0.215846 0.005784 0.000703 0.000002 789.874253 0.001547
0.217159 0.005216 0.000715 0.000002 0.000000 0.000000
0.218367 0.005819 0.000628 0.000002 351.338351 0.000585
0.219584 0.005479 0.000621 0.000002 29.382853 0.000051
0.220817 0.006248 0.000812 0.000002 60.422344 0.000132
0.223059 0.005971 0.000627 0.000002 0.000000 0.000000
0.224651 0.005613 0.000764 0.000001 0.000000 0.000000
0.000634 0.007584 0.000629 0.000002 1266.677269 0.002208
0.001859 0.007152 0.000656 0.000002 4.870800 0.000008
0.003250 0.007255 0.000732 0.000002 0.000000 0.000000
0.004585 0.007953 0.000729 0.000002 75.944691 0.000153
0.006037 0.007811 0.000704 0.000002 133.766678 0.000273
0.007680 0.008417 0.000625 0.000002 65.187809 0.000109
0.008718 0.007491 0.000765 0.000002 0.000000 0.000000
0.010079 0.006772 0.000773 0.000002 0.000000 0.000000
0.011251 0.007529 0.000620 0.000002 0.000000 0.000000
0.012524 0.007205 0.000692 0.000002 0.000000 0.000000
0.015088 0.007102 0.000608 0.000002 42.169677 0.000077
0.016352 0.007670 0.000776 0.000002 0.000000 0.000000
0.018082 0.007492 0.000659 0.000002 0.000000 0.000000
0.019485 0.007389 0.000729 0.000002 0.000000 0.000000
0.020952 0.007270 0.000742 0.000002 0.000000 0.000000
0.022361 0.007142 0.000669 0.000002 17.731708 0.000033
0.023724 0.007285 0.000702 0.000002 21.178891 0.000041
0.025122 0.007264 0.000696 0.000002 6.099097 0.000011
0.026492 0.006948 0.000710 0.000002 150.366145 0.000284
0.027974 0.007317 0.000817 0.000002 0.000000 0.000000
0.029456 0.007072 0.000684 0.000002 108.180663 0.000201
0.030841 0.006960 0.000675 0.000002 0.000000 0.000000
0.032168 0.006901 0.000644 0.000002 77.045316 0.000129
0.033501 0.007556 0.000841 0.000002 272.961194 0.000583
0.034969 0.007176 0.000675 0.000002 0.000000 0.000000
0.036277 0.007191 0.000628 0.000002 0.000000 0.000000
0.037595 0.007261 0.000689 0.000002 27.655423 0.000048
0.039068 0.007265 0.000549 0.000002 1.080351 0.000002
0.040268 0.007057 0.000669 0.000002 0.000000 0.000000
0.041995 0.007063 0.000691 0.000002 164.258054 0.000267
0.043307 0.006940 0.000622 0.000002 0.000000 0.000000
0.044669 0.006991 0.000738 0.000002 0.000000 0.000000
0.046097 0.007130 0.000692 0.000002 0.023871 0.000000
0.047483 0.007109 0.000693 0.000002 0.000000 0.000000
0.048673 0.007706 0.000628 0.000002 0.000000 0.000000
0.050063 0.007722 0.000758 0.000002 402.249936 0.000745
0.051611 0.007689 0.000789 0.000002 26.427902 0.000052
0.053021 0.008003 0.000655 0.000002 0.000000 0.000000
0.054299 0.008149 0.000631 0.000002 11.293578 0.000019
0.055513 0.007357 0.000818 0.000002 2.013636 0.000005
0.057130 0.007583 0.000815 0.000002 0.000000 0.000000
0.058594 0.007536 0.000641 0.000002 99.572167 0.000191
0.060382 0.007827 0.000779 0.000002 0.000000 0.000000
0.061859 0.007466 0.000740 0.000002 0.000000 0.000000
0.063259 0.007982 0.000752 0.000002 0.000000 0.000000
0.064770 0.007735 0.000774 0.000002 0.000000 0.000000
0.066326 0.007561 0.000717 0.000002 54.725846 0.000104
0.067191 0.006523 0.000631 0.000002 0.000000 0.000000
0.068095 0.007654 0.000814 0.000002 10.821101 0.000023
0.069804 0.007277 0.000676 0.000002 0.000000 0.000000
0.071186 0.007338 0.000688 0.000002 37.004119 0.000067
0.072636 0.007385 0.000762 0.000002 0.000000 0.000000
0.074169 0.007041 0.000691 0.000002 0.000000 0.000000
0.076007 0.007093 0.000715 0.000002 0.000000 0.000000
0.077423 0.007403 0.000717 0.000002 13.914983 0.000024
0.078814 0.007498 0.000678 0.000002 51.091109 0.000088
0.080401 0.007390 0.000708 0.000002 117.913647 0.000219
0.081755 0.007197 0.000660 0.000002 0.000000 0.000000
0.083041 0.007511 0.000661 0.000002 11.178516 0.000018
0.084160 0.008139 0.000622 0.000002 12.917598 0.000020
0.085333 0.007647 0.000650 0.000002 0.000000 0.000000
0.086520 0.007351 0.000570 0.000002 0.000000 0.000000
0.087696 0.007743 0.000661 0.000002 0.000000 0.000000
0.089085 0.007400 0.000764 0.000002 0.000000 0.000000
0.090547 0.007689 0.000716 0.000002 0.000000 0.000000
0.092041 0.007817 0.000782 0.000002 0.000000 0.000000
0.093565 0.007922 0.000733 0.000002 92.619352 0.000187
0.094722 0.007154 0.000656 0.000002 0.000000 0.000000
0.096095 0.007141 0.000705 0.000002 0.000000 0.000000
0.097602 0.007409 0.000781 0.000002 120.664267 0.000239
0.099108 0.007322 0.000662 0.000002 0.000000 0.000000
0.100673 0.007439 0.000761 0.000002 0.000000 0.000000
0.102096 0.007539 0.000650 0.000002 30.183898 0.000054
0.103355 0.007414 0.000616 0.000002 45.396713 0.000078
0.104718 0.006986 0.000682 0.000002 0.000000 0.000000
0.106232 0.007278 0.000860 0.000002 189.133201 0.000408
0.107858 0.007325 0.000767 0.000002 0.000000 0.000000
0.109336 0.007550 0.000711 0.000002 0.000000 0.000000
0.110683 0.007813 0.000583 0.000002 39.575710 0.000061
0.111712 0.007102 0.000667 0.000002 0.000000 0.000000
0.113095 0.007367 0.000741 0.000002 0.000000 0.000000
0.115013 0.007413 0.000632 0.000002 0.000000 0.000000
0.116397 0.007458 0.000747 0.000002 0.000000 0.000000
0.117788 0.007382 0.000631 0.000002 0.000000 0.000000
0.119179 0.007334 0.000755 0.000002 51.734168 0.000106
0.120653 0.007258 0.000721 0.000002 90.233170 0.000178
0.122077 0.007306 0.000645 0.000002 94.316829 0.000167
0.123362 0.007231 0.000643 0.000002 34.837837 0.000062
0.124672 0.007878 0.000818 0.000002 17.511255 0.000039
0.126116 0.008507 0.000757 0.000002 3.248470 0.000007
0.127415 0.006995 0.000634 0.000002 0.000000 0.000000
0.128532 0.007630 0.000650 0.000002 54.887553 0.000098
0.129778 0.006990 0.000751 0.000002 2.989225 0.000006
0.131246 0.007253 0.000741 0.000002 38.140907 0.000073
0.133127 0.007069 0.000577 0.000002 0.000000 0.000000
0.133788 0.008164 0.000646 0.000002 57.593976 0.000103
0.135559 0.007743 0.000682 0.000002 0.000000 0.000000
0.137019 0.007748 0.000759 0.000002 0.000000 0.000000
0.138396 0.007253 0.000702 0.000002 0.000000 0.000000
0.139880 0.007639 0.000814 0.000002 0.000000 0.000000
0.141458 0.007539 0.000743 0.000002 33.356373 0.000070
0.142922 0.007330 0.000706 0.000002 43.221384 0.000082
0.144335 0.007410 0.000697 0.000002 20.244579 0.000040
0.145778 0.007113 0.000747 0.000002 107.068463 0.000215
0.147277 0.007477 0.000796 0.000002 0.000000 0.000000
0.148699 0.007145 0.000654 0.000002 61.329390 0.000109
0.150018 0.007118 0.000642 0.000002 0.000000 0.000000
0.151101 0.007786 0.000607 0.000002 0.000000 0.000000
0.152461 0.007868 0.000712 0.000002 47.320368 0.000084
0.153735 0.007287 0.000684 0.000002 27.164721 0.000055
0.155120 0.007111 0.000675 0.000002 32.832245 0.000063
0.156558 0.007310 0.000755 0.000002 200.728148 0.000389
0.158031 0.007416 0.000721 0.000002 193.251410 0.000368
0.159504 0.007589 0.000640 0.000002 0.000000 0.000000
0.160869 0.007640 0.000697 0.000002 0.000000 0.000000
0.162299 0.007806 0.000683 0.000002 0.000000 0.000000
0.163741 0.007574 0.000762 0.000002 26.678760 0.000054
0.165213 0.007544 0.000689 0.000002 0.000000 0.000000
0.166708 0.007315 0.000818 0.000002 0.000000 0.000000
0.168115 0.007572 0.000605 0.000002 0.000000 0.000000
0.169551 0.007170 0.000591 0.000002 -0.551565 -0.000001
0.170947 0.007004 0.000813 0.000002 0.000000 0.000000
0.172623 0.007037 0.000854 0.000002 0.000000 0.000000
0.174198 0.007432 0.000769 0.000002 13.816059 0.000029
0.175578 0.007924 0.000695 0.000002 0.000000 0.000000
0.177009 0.007804 0.000718 0.000002 0.000000 0.000000
0.178772 0.007206 0.000699 0.000002 0.000000 0.000000
0.180238 0.007317 0.000635 0.000002 86.501633 0.000164
0.181646 0.007332 0.000736 0.000002 0.000000 0.000000
0.182934 0.007379 0.000551 0.000001 12.431222 0.000017
0.184214 0.006950 0.000787 0.000002 0.000000 0.000000
0.185823 0.006819 0.000819 0.000002 0.000000 0.000000
0.187498 0.007400 0.000715 0.000002 151.092790 0.000311
0.189667 0.006674 0.000725 0.000002 177.905070 0.000392
0.190868 0.007574 0.000767 0.000002 22.980253 0.000046
0.192251 0.007440 0.000622 0.000002 87.788912 0.000165
0.193542 0.007191 0.000684 0.000002 5.802599 0.000011
0.194866 0.007646 0.000716 0.000002 628.219313 0.001286
0.196499 0.007430 0.000697 0.000002 135.815946 0.000271
0.197759 0.007981 0.000679 0.000002 372.656713 0.000643
0.199073 0.007952 0.000636 0.000002 790.843036 0.001307
0.200362 0.007700 0.000677 0.000002 93.691592 0.000193
0.201809 0.007385 0.000804 0.000002 191.420815 0.000418
0.203197 0.007798 0.000644 0.000002 1287.392887 0.002241
0.204282 0.007196 0.000598 0.000002 0.419517 0.000001
0.205620 0.007147 0.000742 0.000002 17.066369 0.000032
0.206968 0.006951 0.000621 0.000002 495.356448 0.000865
0.208210 0.007061 0.000624 0.000002 680.252705 0.001123
0.209694 0.007030 0.000647 0.000002 273.250437 0.000464
0.211122 0.007137 0.000711 0.000002 354.344133 0.000633
0.212520 0.007359 0.000704 0.000002 194.196488 0.000362
0.213870 0.007519 0.000656 0.000002 329.089109 0.000566
0.215183 0.007803 0.000677 0.000002 0.000000 0.000000
0.216408 0.007093 0.000722 0.000002 792.348984 0.001624
0.217829 0.007033 0.000700 0.000002 101.986660 0.000205
0.219329 0.006882 0.000806 0.000002 121.831714 0.000248
0.220724 0.007908 0.000851 0.000002 0.000000 0.000000
0.222176 0.007047 0.000765 0.000002 0.000000 0.000000
0.223729 0.007095 0.000644 0.000002 0.000000 0.000000
0.000811 0.008986 0.000785 0.000002 993.621159 0.002249
0.002224 0.008472 0.000714 0.000002 0.000000 0.000000
0.003589 0.009082 0.000777 0.000002 0.000000 0.000000
0.005095 0.009314 0.000725 0.000002 37.681834 0.000070
0.006531 0.009140 0.000714 0.000002 26.808679 0.000049
0.007734 0.009624 0.000583 0.000002 128.082475 0.000194
0.008971 0.009025 0.000782 0.000002 0.000000 0.000000
0.010545 0.008771 0.000808 0.000002 0.000000 0.000000
0.012130 0.008625 0.000782 0.000002 0.000000 0.000000
0.013541 0.008170 0.000699 0.000002 0.000000 0.000000
0.014867 0.008321 0.000631 0.000002 20.545006 0.000035
0.017434 0.008802 0.000789 0.000002 0.000000 0.000000
0.018949 0.008733 0.000715 0.000002 0.000000 0.000000
0.020389 0.008637 0.000728 0.000002 4.214251 0.000008
0.021846 0.008453 0.000740 0.000002 0.000000 0.000000
0.023350 0.008728 0.000789 0.000002 22.628270 0.000048
0.024801 0.008658 0.000664 0.000002 6.496630 0.000012
0.026081 0.008270 0.000674 0.000002 136.233642 0.000249
0.027424 0.008826 0.000780 0.000002 30.619393 0.000062
0.028844 0.008562 0.000664 0.000002 0.000000 0.000000
0.030262 0.008293 0.000778 0.000002 89.717245 0.000166
0.031628 0.008033 0.000611 0.000002 0.000000 0.000000
0.032662 0.008820 0.000676 0.000002 84.470150 0.000156
0.034442 0.008635 0.000586 0.000002 0.000000 0.000000
0.035675 0.008344 0.000673 0.000002 61.101922 0.000098
0.037026 0.008589 0.000694 0.000002 0.000000 0.000000
0.038455 0.008410 0.000745 0.000002 0.000000 0.000000
0.039794 0.008241 0.000604 0.000001 -0.021581 -0.000000
0.041115 0.008164 0.000718 0.000002 177.188140 0.000287
0.042493 0.008278 0.000623 0.000002 79.723170 0.000140
0.043888 0.008284 0.000772 0.000002 0.000000 0.000000
0.045352 0.008271 0.000666 0.000002 0.000000 0.000000
0.046815 0.008455 0.000809 0.000002 0.000000 0.000000
0.048201 0.008876 0.000634 0.000002 0.000000 0.000000
0.049536 0.009024 0.000646 0.000002 330.646955 0.000555
0.050854 0.008874 0.000616 0.000002 0.000000 0.000000
0.052205 0.008965 0.000606 0.000002 26.626471 0.000046
0.053565 0.009403 0.000814 0.000002 0.000000 0.000000
0.055017 0.009180 0.000626 0.000002 31.822938 0.000062
0.056400 0.009010 0.000768 0.000002 0.000000 0.000000
0.057818 0.008885 0.000654 0.000002 0.000000 0.000000
0.059186 0.008757 0.000716 0.000002 0.000000 0.000000
0.060553 0.009349 0.000752 0.000002 0.000000 0.000000
0.061979 0.008932 0.000731 0.000002 0.000000 0.000000
0.063205 0.009297 0.000542 0.000002 0.000000 0.000000
0.064412 0.009145 0.000673 0.000002 0.000000 0.000000
0.065742 0.008846 0.000686 0.000002 0.000000 0.000000
0.067061 0.008694 0.000633 0.000002 163.047662 0.000280
0.068122 0.009424 0.000655 0.000002 117.040148 0.000229
0.069335 0.008657 0.000781 0.000002 0.039425 0.000000
0.070812 0.008670 0.000696 0.000002 41.697024 0.000086
0.072268 0.008878 0.000775 0.000002 29.423136 0.000060
0.073626 0.008414 0.000660 0.000002 0.000000 0.000000
0.075037 0.008209 0.000764 0.000002 0.000000 0.000000
0.076493 0.008493 0.000716 0.000002 0.000000 0.000000
0.078084 0.008614 0.000656 0.000002 0.000000 0.000000
0.079661 0.008617 0.000725 0.000002 119.190628 0.000217
0.081118 0.008692 0.000731 0.000002 0.000000 0.000000
0.082633 0.008882 0.000769 0.000002 36.619230 0.000072
0.083936 0.009360 0.000617 0.000001 0.000000 0.000000
0.085175 0.008971 0.000683 0.000002 386.545506 0.000629
0.086604 0.008700 0.000772 0.000002 0.000000 0.000000
0.088073 0.008944 0.000597 0.000002 0.000000 0.000000
0.089622 0.008778 0.000709 0.000002 0.000000 0.000000
0.091107 0.009071 0.000775 0.000002 31.285445 0.000063
0.092760 0.009233 0.000806 0.000002 148.330859 0.000307
0.094097 0.009698 0.000586 0.000002 0.000000 0.000000
0.094968 0.008607 0.000809 0.000002 0.000000 0.000000
0.096544 0.008540 0.000763 0.000002 0.000000 0.000000
0.098184 0.008801 0.000727 0.000002 0.000000 0.000000
0.099704 0.008654 0.000791 0.000002 0.000000 0.000000
0.101417 0.008712 0.000706 0.000002 0.000000 0.000000
0.102888 0.008667 0.000719 0.000002 0.000000 0.000000
0.104332 0.008360 0.000744 0.000002 102.895403 0.000188
0.105672 0.008656 0.000627 0.000002 110.285648 0.000196
0.106952 0.008595 0.000641 0.000002 0.000000 0.000000
0.108415 0.008833 0.000841 0.000002 0.000000 0.000000
0.109954 0.008868 0.000699 0.000002 27.418928 0.000048
0.111379 0.008810 0.000595 0.000002 0.000000 0.000000
0.112636 0.008696 0.000661 0.000002 59.074418 0.000107
0.114113 0.008554 0.000822 0.000002 0.097239 0.000000
0.115575 0.008614 0.000642 0.000002 1.543285 0.000003
0.116910 0.008838 0.000712 0.000002 0.286954 0.000001
0.118434 0.008719 0.000817 0.000002 0.693198 0.000001
0.119996 0.008905 0.000756 0.000002 4.259019 0.000009
0.121399 0.008479 0.000710 0.000002 196.374451 0.000374
0.122875 0.008540 0.000754 0.000002 0.000000 0.000000
0.124659 0.009398 0.000701 0.000002 0.000000 0.000000
0.125896 0.009869 0.000622 0.000002 0.000000 0.000000
0.127205 0.009626 0.000708 0.000002 0.000000 0.000000
0.127478 0.008330 0.000616 0.000002 0.000000 0.000000
0.128956 0.008938 0.000724 0.000002 0.000000 0.000000
0.130333 0.008421 0.000739 0.000002 0.000000 0.000000
0.132406 0.008166 0.000736 0.000002 0.000000 0.000000
0.133021 0.009430 0.000669 0.000002 -0.060827 -0.000000
0.134893 0.009023 0.000755 0.000002 0.000000 0.000000
0.136266 0.008999 0.000612 0.000002 0.000000 0.000000
0.137538 0.009082 0.000658 0.000002 0.000000 0.000000
0.138899 0.008831 0.000722 0.000002 0.000000 0.000000
0.140362 0.009112 0.000735 0.000002 0.000000 0.000000
0.141877 0.008998 0.000775 0.000002 22.220522 0.000046
0.143382 0.008700 0.000739 0.000002 0.000000 0.000000
0.145271 0.008558 0.000785 0.000002 78.179962 0.000163
0.146711 0.008832 0.000671 0.000002 0.000000 0.000000
0.148406 0.008481 0.000714 0.000002 0.000000 0.000000
0.149915 0.008547 0.000786 0.000002 0.000000 0.000000
0.151613 0.008957 0.000663 0.000002 0.000000 0.000000
0.152902 0.009135 0.000630 0.000002 61.575196 0.000102
0.154125 0.008598 0.000683 0.000002 0.000000 0.000000
0.155569 0.008472 0.000758 0.000002 0.000000 0.000000
0.157047 0.008712 0.000731 0.000002 82.585963 0.000155
0.158609 0.008838 0.000815 0.000002 188.685297 0.000390
0.160219 0.009116 0.000812 0.000002 0.000000 0.000000
0.161630 0.008931 0.000601 0.000002 0.000000 0.000000
0.162986 0.009068 0.000753 0.000002 258.446650 0.000514
0.164534 0.008922 0.000801 0.000002 42.133554 0.000090
0.166064 0.008806 0.000732 0.000002 3.158290 0.000006
0.167553 0.008811 0.000747 0.000002 0.000000 0.000000
0.168878 0.008499 0.000591 0.000002 5.580786 0.000009
0.170180 0.008354 0.000712 0.000002 0.000000 0.000000
0.171692 0.008435 0.000799 0.000002 0.216406 0.000000
0.173182 0.008480 0.000691 0.000002 0.000000 0.000000
0.174532 0.008896 0.000718 0.000002 0.000000 0.000000
0.175911 0.009236 0.000658 0.000002 0.000000 0.000000
0.177298 0.009452 0.000740 0.000002 0.000000 0.000000
0.178236 0.008422 0.000623 0.000002 0.000000 0.000000
0.179641 0.008585 0.000766 0.000002 0.000000 0.000000
0.181191 0.008757 0.000755 0.000002 0.000000 0.000000
0.182459 0.008380 0.000557 0.000002 0.000000 0.000000
0.183697 0.008336 0.000661 0.000002 0.000000 0.000000
0.185094 0.008228 0.000735 0.000002 0.072167 0.000000
0.186430 0.008170 0.000603 0.000002 195.766122 0.000328
0.188888 0.007971 0.000788 0.000002 94.208438 0.000209
0.190098 0.008794 0.000676 0.000002 154.896005 0.000294
0.191485 0.008925 0.000717 0.000002 89.118042 0.000168
0.192972 0.008658 0.000794 0.000002 16.667502 0.000034
0.194392 0.008929 0.000652 0.000002 660.398877 0.001233
0.195866 0.008800 0.000811 0.000002 43.775343 0.000087
0.197260 0.009203 0.000641 0.000002 642.657217 0.001105
0.198627 0.009240 0.000727 0.000002 661.592569 0.001213
0.200130 0.009134 0.000776 0.000002 0.000000 0.000000
0.201666 0.008912 0.000729 0.000002 0.000000 0.000000
0.203010 0.009049 0.000621 0.000002 982.571032 0.001617
0.204429 0.008613 0.000815 0.000002 0.000000 0.000000
0.205946 0.008553 0.000702 0.000002 27.241264 0.000054
0.207473 0.008297 0.000817 0.000002 976.539119 0.001847
0.208891 0.008086 0.000605 0.000002 0.000000 0.000000
0.210249 0.008337 0.000774 0.000002 609.349158 0.001080
0.211749 0.008589 0.000748 0.000002 283.941774 0.000539
0.213234 0.008769 0.000748 0.000002 371.767528 0.000749
0.214680 0.009059 0.000659 0.000002 0.000000 0.000000
0.216529 0.008519 0.000709 0.000002 673.129610 0.001279
0.217930 0.008380 0.000651 0.000002 0.000000 0.000000
0.219242 0.008343 0.000658 0.000002 46.405381 0.000087
0.220213 0.009391 0.000717 0.000002 0.000000 0.000000
0.221670 0.009242 0.000719 0.000002 0.000000 0.000000
0.222751 0.008361 0.000669 0.000002 0.000000 0.000000
0.224258 0.008455 0.000814 0.000002 0.000000 0.000000
0.000820 0.010545 0.000775 0.000002 838.877360 0.001879
0.002297 0.009984 0.000798 0.000002 0.000000 0.000000
0.004380 0.010461 0.000626 0.000002 16.263418 0.000028
0.005723 0.010508 0.000624 0.000002 0.000000 0.000000
0.007018 0.010661 0.000676 0.000002 0.000000 0.000000
0.008697 0.010505 0.000723 0.000002 130.947019 0.000237
0.010104 0.010220 0.000707 0.000002 8.883970 0.000018
0.011578 0.010079 0.000773 0.000002 0.000000 0.000000
0.013232 0.009871 0.000880 0.000002 93.445514 0.000215
0.014690 0.009618 0.000590 0.000002 0.000000 0.000000
0.015944 0.009170 0.000741 0.000002 0.000000 0.000000
0.016864 0.010345 0.000751 0.000002 0.000000 0.000000
0.018323 0.010038 0.000732 0.000002 0.000000 0.000000
0.019750 0.009911 0.000695 0.000002 0.000000 0.000000
0.021055 0.009803 0.000612 0.000002 -0.065230 -0.000000
0.022335 0.009774 0.000668 0.000002 0.000000 0.000000
0.024423 0.009939 0.000671 0.000002 4.386700 0.000009
0.025825 0.009676 0.000756 0.000002 32.742869 0.000070
0.027114 0.010213 0.000641 0.000002 154.914022 0.000276
0.028430 0.009925 0.000706 0.000002 0.000000 0.000000
0.029758 0.009697 0.000638 0.000002 0.000000 0.000000
0.031346 0.009370 0.000751 0.000002 193.946716 0.000373
0.032483 0.010343 0.000746 0.000002 105.436637 0.000207
0.033704 0.009636 0.000647 0.000002 136.310688 0.000232
0.035217 0.009516 0.000585 0.000002 91.842337 0.000143
0.036475 0.009915 0.000734 0.000002 192.643749 0.000379
0.037978 0.009839 0.000760 0.000002 0.000000 0.000000
0.039417 0.009510 0.000716 0.000002 48.625598 0.000085
0.040613 0.009277 0.000503 0.000001 221.246165 0.000322
0.041822 0.009439 0.000718 0.000002 137.323451 0.000239
0.043279 0.009680 0.000750 0.000002 23.091228 0.000045
0.044658 0.009470 0.000641 0.000002 3.189596 0.000005
0.045972 0.009703 0.000693 0.000002 0.000000 0.000000
0.047332 0.009863 0.000675 0.000002 109.555844 0.000187
0.048728 0.010117 0.000714 0.000002 194.246819 0.000340
0.050325 0.010156 0.000730 0.000002 0.000000 0.000000
0.051844 0.010320 0.000797 0.000002 0.000000 0.000000
0.053211 0.010906 0.000691 0.000002 8.785487 0.000018
0.054703 0.010604 0.000832 0.000002 52.172850 0.000106
0.056229 0.010467 0.000699 0.000002 0.000000 0.000000
0.057568 0.010182 0.000667 0.000002 0.000000 0.000000
0.059306 0.010208 0.000739 0.000002 27.937373 0.000061
0.061098 0.010703 0.000706 0.000002 0.000000 0.000000
0.062460 0.010304 0.000710 0.000002 0.000000 0.000000
0.063788 0.010614 0.000643 0.000002 0.000000 0.000000
0.065124 0.010318 0.000698 0.000002 0.000000 0.000000
0.066607 0.010047 0.000794 0.000002 0.000000 0.000000
0.067993 0.010836 0.000763 0.000002 125.258537 0.000267
0.069488 0.010262 0.000831 0.000002 41.482400 0.000093
0.071091 0.010092 0.000753 0.000002 0.000000 0.000000
0.072283 0.010668 0.000570 0.000002 85.900797 0.000150
0.073152 0.009910 0.000583 0.000002 3.687509 0.000006
0.074376 0.009548 0.000693 0.000002 0.000000 0.000000
0.075834 0.009865 0.000796 0.000002 0.000000 0.000000
0.077365 0.009805 0.000730 0.000002 -0.050467 -0.000000
0.078844 0.009845 0.000750 0.000002 0.000000 0.000000
0.080266 0.009846 0.000644 0.000002 1.177033 0.000002
0.081674 0.010105 0.000786 0.000002 0.000000 0.000000
0.083054 0.010191 0.000594 0.000002 0.000000 0.000000
0.084819 0.010188 0.000586 0.000001 0.000000 0.000000
0.085966 0.010248 0.000561 0.000002 0.000000 0.000000
0.087297 0.010082 0.000771 0.000002 0.000000 0.000000
0.088865 0.010089 0.000796 0.000002 8.391873 0.000016
0.090292 0.010232 0.000636 0.000002 0.000000 0.000000
0.091773 0.010438 0.000745 0.000002 52.609632 0.000103
0.093243 0.010658 0.000698 0.000002 144.344069 0.000251
0.094536 0.010783 0.000579 0.000002 0.000000 0.000000
0.095419 0.009965 0.000620 0.000002 32.447256 0.000057
0.096814 0.010042 0.000762 0.000002 0.000000 0.000000
0.098234 0.010263 0.000675 0.000002 0.000000 0.000000
0.099632 0.010173 0.000726 0.000002 0.000000 0.000000
0.100997 0.010001 0.000649 0.000002 0.000000 0.000000
0.102314 0.009932 0.000669 0.000002 0.000000 0.000000
0.103563 0.009791 0.000585 0.000002 31.712299 0.000053
0.104858 0.009709 0.000704 0.000002 135.181886 0.000239
0.106346 0.009929 0.000794 0.000002 0.000000 0.000000
0.107900 0.010261 0.000677 0.000002 0.000000 0.000000
0.109320 0.010159 0.000740 0.000002 18.917048 0.000036
0.110806 0.009925 0.000658 0.000002 0.000000 0.000000
0.112177 0.009987 0.000709 0.000002 37.054122 0.000060
0.113505 0.009862 0.000620 0.000002 0.000000 0.000000
0.114919 0.009953 0.000775 0.000002 0.000000 0.000000
0.116380 0.010150 0.000700 0.000002 0.202115 0.000000
0.117737 0.010025 0.000663 0.000002 0.000000 0.000000
0.119141 0.010140 0.000746 0.000002 0.000000 0.000000
0.120505 0.010197 0.000610 0.000002 14.830509 0.000025
0.121817 0.009870 0.000742 0.000002 130.778796 0.000266
0.123392 0.009797 0.000603 0.000002 0.000000 0.000000
0.124363 0.010888 0.000805 0.000002 0.000000 0.000000
0.125866 0.011229 0.000736 0.000002 0.000000 0.000000
0.127282 0.011040 0.000675 0.000002 0.000000 0.000000
0.128462 0.010301 0.000716 0.000002 0.000000 0.000000
0.130047 0.009812 0.000674 0.000002 6.843276 0.000012
0.131516 0.009463 0.000836 0.000002 29.507493 0.000061
0.132270 0.010809 0.000705 0.000002 70.703802 0.000144
0.134138 0.010388 0.000802 0.000002 20.724079 0.000046
0.135762 0.010304 0.000779 0.000002 0.000000 0.000000
0.137363 0.010538 0.000807 0.000002 0.000000 0.000000
0.138938 0.010334 0.000775 0.000002 0.000000 0.000000
0.140330 0.010479 0.000623 0.000002 0.000000 0.000000
0.141570 0.010357 0.000618 0.000002 40.829206 0.000069
0.142932 0.010131 0.000756 0.000002 0.000000 0.000000
0.144382 0.009769 0.000717 0.000002 0.000000 0.000000
0.145848 0.009981 0.000750 0.000002 41.445622 0.000085
0.147744 0.009702 0.000674 0.000002 0.000000 0.000000
0.149124 0.009813 0.000702 0.000002 0.000000 0.000000
0.150580 0.009938 0.000751 0.000002 0.000000 0.000000
0.152115 0.010376 0.000838 0.000002 0.000000 0.000000
0.153675 0.010186 0.000674 0.000002 110.358166 0.000219
0.154890 0.009694 0.000636 0.000002 0.000000 0.000000
0.156172 0.009772 0.000642 0.000002 0.000000 0.000000
0.157639 0.009892 0.000589 0.000002 0.000000 0.000000
0.159077 0.010316 0.000737 0.000002 192.741295 0.000371
0.160591 0.010621 0.000735 0.000002 0.000000 0.000000
0.162030 0.010213 0.000738 0.000002 205.829349 0.000384
0.163769 0.010412 0.000782 0.000002 0.000000 0.000000
0.165317 0.010280 0.000766 0.000002 21.926976 0.000044
0.166780 0.010052 0.000705 0.000002 0.000000 0.000000
0.168219 0.010089 0.000694 0.000002 22.319647 0.000038
0.169494 0.009578 0.000651 0.000002 3.061571 0.000005
0.170928 0.009822 0.000776 0.000002 0.000000 0.000000
0.172392 0.009739 0.000679 0.000002 0.000000 0.000000
0.173675 0.009921 0.000617 0.000002 0.000000 0.000000
0.175000 0.010339 0.000755 0.000002 0.000000 0.000000
0.176481 0.010715 0.000760 0.000002 48.955182 0.000096
0.177915 0.010712 0.000663 0.000002 0.000000 0.000000
0.178671 0.009596 0.000629 0.000002 0.000000 0.000000
0.180375 0.009920 0.000665 0.000002 0.000000 0.000000
0.182173 0.009840 0.000694 0.000002 0.000000 0.000000
0.183527 0.009655 0.000668 0.000002 0.000000 0.000000
0.184957 0.009727 0.000759 0.000002 0.000000 0.000000
0.186344 0.009426 0.000656 0.000002 0.000000 0.000000
0.187630 0.008864 0.000736 0.000002 101.006288 0.000194
0.188923 0.009680 0.000778 0.000002 0.000000 0.000000
0.190614 0.010106 0.000734 0.000002 77.982274 0.000144
0.192119 0.010145 0.000658 0.000002 196.247921 0.000350
0.193541 0.010132 0.000764 0.000002 27.176142 0.000052
0.195004 0.010125 0.000693 0.000002 517.045140 0.000935
0.196389 0.010214 0.000694 0.000002 0.000000 0.000000
0.197823 0.010413 0.000694 0.000002 893.453384 0.001589
0.199404 0.010570 0.000813 0.000002 290.220633 0.000631
0.201064 0.010466 0.000851 0.000002 4.986451 0.000011
0.202494 0.010164 0.000610 0.000002 836.242952 0.001400
0.203906 0.010108 0.000767 0.000002 115.391614 0.000219
0.205386 0.009808 0.000672 0.000002 0.000000 0.000000
0.206809 0.009670 0.000709 0.000002 558.742210 0.000975
0.208156 0.009548 0.000610 0.000002 460.290160 0.000777
0.209393 0.009450 0.000631 0.000002 732.903674 0.001253
0.210772 0.009605 0.000588 0.000002 0.000000 0.000000
0.211987 0.009981 0.000665 0.000002 179.834591 0.000313
0.213385 0.010273 0.000763 0.000002 306.281722 0.000629
0.214855 0.010667 0.000758 0.000002 218.740060 0.000436
0.215844 0.009681 0.000639 0.000002 126.441233 0.000219
0.217256 0.009783 0.000749 0.000002 457.408388 0.000883
0.218760 0.009676 0.000759 0.000002 31.415019 0.000062
0.219718 0.010657 0.000612 0.000002 64.677754 0.000101
0.220958 0.010534 0.000634 0.000002 0.000000 0.000000
0.222978 0.010006 0.000758 0.000003 0.000000 0.000000
0.000683 0.011992 0.000679 0.000002 1034.693733 0.001899
0.002010 0.011472 0.000718 0.000002 0.000000 0.000000
0.003287 0.010977 0.000583 0.000002 44.831607 0.000080
0.005017 0.011662 0.000728 0.000002 0.000000 0.000000
0.006388 0.011838 0.000652 0.000002 0.000000 0.000000
0.007922 0.011713 0.000706 0.000002 0.000000 0.000000
0.009455 0.011674 0.000670 0.000002 99.259265 0.000185
0.010886 0.011452 0.000752 0.000002 8.220416 0.000016
0.012420 0.011284 0.000694 0.000002 0.000000 0.000000
0.013850 0.011359 0.000732 0.000002 68.124136 0.000136
0.015211 0.010826 0.000724 0.000002 0.000000 0.000000
0.016374 0.011793 0.000777 0.000002 375.793901 0.000754
0.017912 0.011499 0.000785 0.000002 0.000000 0.000000
0.019158 0.011015 0.000547 0.000002 0.000000 0.000000
0.020596 0.010953 0.000620 0.000002 0.000000 0.000000
0.021843 0.010999 0.000622 0.000002 0.000000 0.000000
0.023274 0.010912 0.000807 0.000002 0.000000 0.000000
0.024802 0.011427 0.000805 0.000002 0.000000 0.000000
0.026445 0.011533 0.000837 0.000002 0.000000 0.000000
0.027928 0.011238 0.000668 0.000002 198.105433 0.000377
0.029440 0.011149 0.000847 0.000002 13.143603 0.000028
0.031000 0.010826 0.000746 0.000002 93.025357 0.000193
0.032086 0.011847 0.000745 0.000002 284.244144 0.000562
0.033497 0.011416 0.000731 0.000002 308.957286 0.000581
0.034592 0.010579 0.000648 0.000002 104.773846 0.000179
0.035811 0.011220 0.000730 0.000002 236.558100 0.000458
0.037383 0.011347 0.000848 0.000002 91.966903 0.000201
0.039034 0.010883 0.000710 0.000002 63.816753 0.000126
0.040737 0.010599 0.000826 0.000002 52.501694 0.000113
0.042312 0.010810 0.000737 0.000002 155.246308 0.000318
0.043751 0.011103 0.000729 0.000002 0.000000 0.000000
0.045062 0.010693 0.000645 0.000002 0.000000 0.000000
0.046404 0.011081 0.000741 0.000002 0.000000 0.000000
0.047792 0.011098 0.000642 0.000002 278.136805 0.000495
0.049389 0.011411 0.000735 0.000002 0.000000 0.000000
0.050895 0.011579 0.000779 0.000002 0.000000 0.000000
0.052500 0.012263 0.000841 0.000002 1.107306 0.000002
0.054062 0.012046 0.000732 0.000002 0.000000 0.000000
0.055598 0.011776 0.000642 0.000002 197.807592 0.000354
0.056924 0.011669 0.000688 0.000002 0.000000 0.000000
0.058360 0.011389 0.000774 0.000002 0.000000 0.000000
0.059910 0.011613 0.000788 0.000002 0.000000 0.000000
0.061281 0.012059 0.000643 0.000002 0.000000 0.000000
0.062639 0.011752 0.000748 0.000002 0.000000 0.000000
0.064650 0.011589 0.000658 0.000002 0.000000 0.000000
0.065997 0.011406 0.000694 0.000002 0.000000 0.000000
0.067232 0.012120 0.000730 0.000002 177.175732 0.000392
0.069096 0.011889 0.000762 0.000002 0.000000 0.000000
0.070388 0.011397 0.000617 0.000002 108.655624 0.000195
0.071634 0.011727 0.000672 0.000002 174.227013 0.000304
0.072990 0.012126 0.000728 0.000002 28.362701 0.000057
0.074010 0.010994 0.000793 0.000002 0.000000 0.000000
0.075454 0.011283 0.000669 0.000002 0.000000 0.000000
0.076682 0.010972 0.000596 0.000002 0.000000 0.000000
0.078070 0.011190 0.000801 0.000002 30.884027 0.000063
0.079665 0.011140 0.000783 0.000002 0.000000 0.000000
0.081221 0.011505 0.000686 0.000002 15.802217 0.000031
0.082598 0.011398 0.000696 0.000002 42.734584 0.000078
0.083951 0.011121 0.000685 0.000002 0.000000 0.000000
0.085269 0.011324 0.000630 0.000002 0.000000 0.000000
0.086570 0.011329 0.000671 0.000002 0.000000 0.000000
0.087967 0.011408 0.000709 0.000002 0.000000 0.000000
0.089434 0.011506 0.000731 0.000002 0.000000 0.000000
0.090913 0.011677 0.000755 0.000002 0.000000 0.000000
0.092373 0.011755 0.000702 0.000002 50.162228 0.000091
0.093892 0.012028 0.000819 0.000002 42.361734 0.000086
0.095887 0.011322 0.000816 0.000002 8.889272 0.000018
0.097418 0.011406 0.000715 0.000002 0.000000 0.000000
0.098819 0.011530 0.000692 0.000002 0.000000 0.000000
0.100218 0.011488 0.000707 0.000002 0.000000 0.000000
0.101692 0.011253 0.000783 0.000002 0.000000 0.000000
0.103209 0.011073 0.000744 0.000002 48.766434 0.000087
0.104660 0.011051 0.000653 0.000002 76.383860 0.000139
0.105944 0.011340 0.000661 0.000002 0.000000 0.000000
0.107226 0.011367 0.000619 0.000002 0.000000 0.000000
0.108643 0.011379 0.000653 0.000002 0.000000 0.000000
0.110348 0.011323 0.000813 0.000002 -0.163918 -0.000000
0.111802 0.011285 0.000642 0.000002 55.908829 0.000103
0.113020 0.010995 0.000605 0.000002 3.219673 0.000005
0.114268 0.011262 0.000672 0.000002 -0.069711 -0.000000
0.115575 0.011248 0.000636 0.000002 7.204595 0.000013
0.117058 0.011590 0.000886 0.000002 51.813432 0.000115
0.118637 0.011541 0.000693 0.000002 0.000000 0.000000
0.119880 0.011248 0.000584 0.000002 0.000000 0.000000
0.121251 0.011418 0.000797 0.000002 0.000000 0.000000
0.122788 0.011039 0.000777 0.000002 86.873055 0.000166
0.123590 0.012277 0.000698 0.000002 63.196867 0.000108
0.124967 0.012317 0.000674 0.000002 0.000000 0.000000
0.126696 0.012509 0.000790 0.000002 8.521388 0.000018
0.128439 0.011593 0.000576 0.000002 0.000000 0.000000
0.129608 0.011109 0.000684 0.000002 0.000000 0.000000
0.130912 0.010820 0.000649 0.000002 0.000000 0.000000
0.131912 0.012154 0.000674 0.000002 0.000000 0.000000
0.133405 0.011863 0.000844 0.000002 83.429041 0.000185
0.134966 0.011670 0.000724 0.000002 48.217050 0.000100
0.136451 0.011812 0.000760 0.000002 10.417730 0.000021
0.138171 0.011800 0.000646 0.000002 0.000000 0.000000
0.139605 0.011742 0.000773 0.000002 0.000000 0.000000
0.141084 0.011588 0.000706 0.000002 0.000000 0.000000
0.142443 0.011461 0.000647 0.000002 0.000000 0.000000
0.144049 0.011309 0.000857 0.000002 0.000000 0.000000
0.145662 0.011482 0.000762 0.000002 0.000000 0.000000
0.147012 0.010877 0.000711 0.000002 0.000000 0.000000
0.148457 0.011105 0.000751 0.000002 0.000000 0.000000
0.149920 0.011242 0.000707 0.000002 0.000000 0.000000
0.151271 0.011669 0.000706 0.000002 0.000000 0.000000
0.152603 0.012345 0.000782 0.000002 0.000000 0.000000
0.153988 0.011608 0.000782 0.000002 0.000000 0.000000
0.155444 0.011029 0.000785 0.000002 0.000000 0.000000
0.156890 0.010917 0.000661 0.000002 0.000000 0.000000
0.158132 0.011320 0.000640 0.000002 40.471539 0.000069
0.159612 0.011543 0.000601 0.000002 180.162298 0.000299
0.161609 0.011479 0.000596 0.000002 132.958343 0.000203
0.162796 0.011376 0.000586 0.000002 0.000000 0.000000
0.164581 0.011582 0.000622 0.000002 0.000000 0.000000
0.165853 0.011577 0.000637 0.000002 28.482754 0.000047
0.167118 0.011360 0.000645 0.000002 0.000000 0.000000
0.168308 0.011287 0.000508 0.000001 37.493402 0.000047
0.169302 0.010810 0.000595 0.000002 0.000000 0.000000
0.170539 0.011480 0.000792 0.000002 0.000000 0.000000
0.172012 0.011122 0.000724 0.000002 0.000000 0.000000
0.173394 0.011156 0.000649 0.000002 0.000000 0.000000
0.174617 0.011736 0.000682 0.000002 0.000000 0.000000
0.175962 0.012072 0.000693 0.000002 44.667542 0.000082
0.177330 0.011925 0.000683 0.000002 0.000000 0.000000
0.178763 0.012010 0.000709 0.000002 0.000000 0.000000
0.179319 0.010744 0.000674 0.000002 0.000000 0.000000
0.181407 0.010978 0.000678 0.000002 25.882144 0.000050
0.183004 0.011027 0.000748 0.000002 56.899024 0.000109
0.184450 0.011099 0.000694 0.000002 0.000000 0.000000
0.185934 0.010973 0.000796 0.000002 0.000000 0.000000
0.187467 0.010422 0.000831 0.000002 0.000000 0.000000
0.188842 0.011218 0.000757 0.000002 0.000000 0.000000
0.190150 0.011309 0.000553 0.000002 0.000000 0.000000
0.191403 0.011175 0.000595 0.000002 89.465111 0.000138
0.192732 0.011419 0.000757 0.000002 199.395222 0.000359
0.194211 0.011446 0.000709 0.000002 0.000000 0.000000
0.195614 0.011373 0.000695 0.000002 0.000000 0.000000
0.196960 0.011446 0.000653 0.000002 256.720079 0.000436
0.198348 0.011777 0.000768 0.000002 732.961419 0.001346
0.199756 0.011998 0.000658 0.000002 165.739382 0.000310
0.201152 0.012053 0.000739 0.000002 331.342712 0.000624
0.202205 0.011296 0.000559 0.000002 570.580924 0.000873
0.203562 0.011562 0.000696 0.000002 19.521250 0.000035
0.204929 0.011188 0.000721 0.000002 253.790610 0.000446
0.206320 0.010976 0.000686 0.000002 182.272540 0.000322
0.207686 0.010767 0.000696 0.000002 461.490439 0.000778
0.209092 0.010733 0.000688 0.000002 616.382360 0.001175
0.210970 0.010852 0.000675 0.000002 38.533904 0.000069
0.212326 0.011327 0.000724 0.000002 200.705623 0.000364
0.213775 0.011774 0.000788 0.000002 336.525637 0.000684
0.215265 0.012094 0.000725 0.000002 0.000000 0.000000
0.216347 0.010980 0.000754 0.000002 97.122450 0.000190
0.217886 0.011149 0.000755 0.000002 368.195065 0.000761
0.219119 0.011709 0.000598 0.000002 127.110169 0.000200
0.220393 0.011702 0.000632 0.000002 0.000000 0.000000
0.222125 0.011386 0.000787 0.000002 0.000000 0.000000
0.223556 0.011303 0.000645 0.000003 0.000000 0.000000
0.000570 0.013234 0.000569 0.000002 1393.457582 0.002164
0.003201 0.012232 0.000675 0.000002 173.048249 0.000303
0.004381 0.012894 0.000656 0.000002 0.000000 0.000000
0.005729 0.013010 0.000687 0.000002 0.000000 0.000000
0.007199 0.013016 0.000779 0.000002 2.785082 0.000005
0.008756 0.012937 0.000773 0.000002 56.136428 0.000105
0.010268 0.012836 0.000743 0.000002 26.408398 0.000050
0.011860 0.012727 0.000852 0.000002 0.000000 0.000000
0.013332 0.012612 0.000621 0.000002 0.000000 0.000000
0.014936 0.012428 0.000792 0.000002 99.111595 0.000205
0.016192 0.013291 0.000732 0.000002 61.314763 0.000114
0.017403 0.012780 0.000583 0.000002 0.000000 0.000000
0.018754 0.013056 0.000790 0.000002 68.126010 0.000132
0.019765 0.012041 0.000642 0.000002 358.786762 0.000595
0.021125 0.012189 0.000723 0.000002 74.573930 0.000128
0.022541 0.012226 0.000692 0.000002 0.000000 0.000000
0.023794 0.012359 0.000568 0.000002 0.000000 0.000000
0.024900 0.013020 0.000720 0.000002 0.000000 0.000000
0.026275 0.012970 0.000609 0.000002 0.000000 0.000000
0.027607 0.012627 0.000758 0.000002 116.052055 0.000231
0.029082 0.012672 0.000718 0.000002 3.914916 0.000008
0.030631 0.012263 0.000703 0.000002 0.000000 0.000000
0.031755 0.013449 0.000891 0.000002 203.262257 0.000456
0.033152 0.012763 0.000659 0.000002 0.000000 0.000000
0.034715 0.012206 0.000721 0.000002 63.300351 0.000133
0.036213 0.012573 0.000682 0.000002 186.424341 0.000347
0.037535 0.012853 0.000650 0.000002 0.000000 0.000000
0.038617 0.012151 0.000624 0.000002 328.386755 0.000572
0.039997 0.011971 0.000733 0.000002 0.000000 0.000000
0.041542 0.012161 0.000819 0.000002 155.578595 0.000338
0.043038 0.012335 0.000676 0.000002 0.000000 0.000000
0.044805 0.011911 0.000591 0.000002 0.000000 0.000000
0.045894 0.012368 0.000583 0.000002 0.000000 0.000000
0.047209 0.012337 0.000727 0.000002 0.000000 0.000000
0.048574 0.012519 0.000639 0.000002 0.000000 0.000000
0.049923 0.012769 0.000719 0.000002 0.000000 0.000000
0.051224 0.012906 0.000588 0.000002 0.000000 0.000000
0.052183 0.013839 0.000741 0.000002 143.158420 0.000262
0.053550 0.013388 0.000698 0.000002 0.000000 0.000000
0.055116 0.013048 0.000718 0.000002 341.241335 0.000638
0.056482 0.012926 0.000634 0.000002 0.000000 0.000000
0.057757 0.012696 0.000632 0.000002 24.075536 0.000039
0.058964 0.012601 0.000579 0.000002 0.000000 0.000000
0.060319 0.013144 0.000796 0.000002 0.000000 0.000000
0.062317 0.013147 0.000648 0.000002 0.000000 0.000000
0.063809 0.012837 0.000847 0.000002 0.000000 0.000000
0.065481 0.012827 0.000817 0.000002 0.000000 0.000000
0.066884 0.013543 0.000736 0.000002 174.319017 0.000352
0.068389 0.013261 0.000780 0.000002 20.486792 0.000045
0.070365 0.012832 0.000818 0.000002 99.136766 0.000211
0.071880 0.013095 0.000718 0.000002 184.899726 0.000324
0.073198 0.013500 0.000661 0.000002 27.348066 0.000050
0.074613 0.012531 0.000830 0.000002 0.000000 0.000000
0.076260 0.012371 0.000684 0.000002 0.000000 0.000000
0.077624 0.012624 0.000700 0.000002 0.000000 0.000000
0.078990 0.012451 0.000674 0.000002 0.000000 0.000000
0.080280 0.012387 0.000604 0.000002 90.739694 0.000146
0.081540 0.013013 0.000793 0.000002 0.000000 0.000000
0.083008 0.012720 0.000689 0.000002 44.569437 0.000082
0.084406 0.012430 0.000701 0.000002 0.000000 0.000000
0.085861 0.012581 0.000758 0.000002 -0.195567 -0.000000
0.087327 0.012680 0.000712 0.000002 21.531659 0.000041
0.088764 0.012794 0.000721 0.000002 -0.058278 -0.000000
0.090158 0.012899 0.000678 0.000002 0.000000 0.000000
0.091501 0.012974 0.000663 0.000002 0.000000 0.000000
0.092800 0.013020 0.000634 0.000002 22.997427 0.000038
0.093996 0.013493 0.000649 0.000002 10.427595 0.000018
0.095310 0.012847 0.000814 0.000002 0.000000 0.000000
0.096731 0.012565 0.000632 0.000002 0.000000 0.000000
0.098156 0.012909 0.000835 0.000002 86.102921 0.000187
0.099604 0.012678 0.000628 0.000002 0.000000 0.000000
0.101094 0.012745 0.000768 0.000002 0.000000 0.000000
0.102636 0.012421 0.000710 0.000002 111.637207 0.000232
0.104037 0.012204 0.000658 0.000002 174.649119 0.000313
0.105341 0.012682 0.000730 0.000002 0.000000 0.000000
0.106604 0.012377 0.000567 0.000001 0.000000 0.000000
0.107876 0.012516 0.000700 0.000002 0.000000 0.000000
0.109392 0.012643 0.000816 0.000002 5.163557 0.000011
0.111078 0.012741 0.000779 0.000002 13.755447 0.000030
0.112638 0.012452 0.000794 0.000002 87.432426 0.000194
0.114197 0.012716 0.000783 0.000002 0.000000 0.000000
0.115755 0.012641 0.000764 0.000002 0.000000 0.000000
0.117128 0.013174 0.000699 0.000002 0.000000 0.000000
0.118325 0.012769 0.000565 0.000002 0.000000 0.000000
0.119670 0.012596 0.000772 0.000002 227.455332 0.000463
0.121143 0.012973 0.000739 0.000002 217.045647 0.000432
0.122302 0.012322 0.000587 0.000002 0.000000 0.000000
0.122838 0.013397 0.000613 0.000002 0.000000 0.000000
0.124258 0.013437 0.000641 0.000002 0.000000 0.000000
0.125641 0.013621 0.000742 0.000002 0.000000 0.000000
0.128183 0.012891 0.000745 0.000002 0.000000 0.000000
0.129363 0.012316 0.000548 0.000001 0.000000 0.000000
0.130548 0.012071 0.000654 0.000002 0.000000 0.000000
0.131133 0.013370 0.000770 0.000002 1.522491 0.000003
0.132640 0.013380 0.000737 0.000002 0.000000 0.000000
0.134133 0.013279 0.000748 0.000002 38.058966 0.000079
0.135532 0.012943 0.000670 0.000002 0.000000 0.000000
0.137358 0.012862 0.000628 0.000002 0.000000 0.000000
0.138706 0.013092 0.000730 0.000002 0.000000 0.000000
0.140167 0.013110 0.000705 0.000002 0.000000 0.000000
0.141617 0.012950 0.000751 0.000002 0.000000 0.000000
0.143191 0.012761 0.000828 0.000002 0.000000 0.000000
0.144821 0.012790 0.000793 0.000002 16.935293 0.000036
0.146352 0.012823 0.000735 0.000002 2.216070 0.000004
0.147527 0.012092 0.000590 0.000002 0.000000 0.000000
0.148754 0.012502 0.000673 0.000002 0.000000 0.000000
0.150098 0.012657 0.000673 0.000002 0.000000 0.000000
0.151359 0.013029 0.000637 0.000002 0.000000 0.000000
0.153933 0.013144 0.000754 0.000002 0.000000 0.000000
0.155140 0.012415 0.000624 0.000002 0.000000 0.000000
0.156470 0.012232 0.000718 0.000002 1.962668 0.000004
0.157752 0.012488 0.000589 0.000002 69.833001 0.000113
0.158983 0.012623 0.000649 0.000002 32.441833 0.000053
0.160643 0.012406 0.000744 0.000002 84.540275 0.000160
0.162066 0.012664 0.000675 0.000002 0.000000 0.000000
0.163533 0.012551 0.000778 0.000002 0.000000 0.000000
0.165216 0.012784 0.000722 0.000002 0.000000 0.000000
0.166646 0.012630 0.000681 0.000002 0.000000 0.000000
0.167940 0.012369 0.000636 0.000001 1.463952 0.000002
0.169214 0.012045 0.000643 0.000002 0.000000 0.000000
0.170253 0.013013 0.000747 0.000002 51.888286 0.000099
0.171647 0.012494 0.000693 0.000002 0.000000 0.000000
0.173027 0.012446 0.000685 0.000002 0.000000 0.000000
0.174213 0.013010 0.000628 0.000002 0.000000 0.000000
0.175462 0.013323 0.000654 0.000002 27.860798 0.000045
0.176818 0.013217 0.000706 0.000002 0.000000 0.000000
0.178230 0.013321 0.000707 0.000002 0.000000 0.000000
0.179579 0.013173 0.000632 0.000002 0.000000 0.000000
0.180262 0.011903 0.000794 0.000002 0.000000 0.000000
0.182122 0.012145 0.000677 0.000002 58.990243 0.000112
0.183674 0.012407 0.000770 0.000002 0.000000 0.000000
0.185155 0.012326 0.000711 0.000002 0.785944 0.000002
0.186682 0.012405 0.000818 0.000002 0.000000 0.000000
0.188165 0.012473 0.000665 0.000002 -0.004976 -0.000000
0.189509 0.012490 0.000679 0.000002 2.562053 0.000004
0.190862 0.012333 0.000684 0.000002 23.967446 0.000039
0.192123 0.012651 0.000617 0.000002 154.285562 0.000271
0.193495 0.012727 0.000758 0.000002 220.300428 0.000409
0.195013 0.012719 0.000760 0.000002 0.819149 0.000002
0.196453 0.012679 0.000681 0.000002 0.000000 0.000000
0.197699 0.012982 0.000601 0.000002 49.654155 0.000079
0.198973 0.013078 0.000677 0.000002 755.976339 0.001174
0.200357 0.013270 0.000715 0.000002 0.000000 0.000000
0.202497 0.012496 0.000677 0.000002 311.893554 0.000531
0.203638 0.013191 0.000659 0.000002 435.959897 0.000787
0.204519 0.012379 0.000539 0.000001 1.017601 0.000002
0.205763 0.012466 0.000709 0.000002 246.640806 0.000430
0.207058 0.012080 0.000643 0.000002 1.622399 0.000003
0.208427 0.011984 0.000729 0.000002 923.777028 0.001712
0.209974 0.011841 0.000728 0.000002 36.790384 0.000072
0.211289 0.012207 0.000637 0.000002 48.103125 0.000084
0.212600 0.012789 0.000764 0.000002 118.095701 0.000232
0.214313 0.013169 0.000707 0.000002 265.529708 0.000495
0.215640 0.013417 0.000642 0.000002 0.000000 0.000000
0.216681 0.012422 0.000727 0.000002 75.282607 0.000143
0.218080 0.012571 0.000681 0.000002 394.926007 0.000738
0.219726 0.012882 0.000722 0.000002 136.612640 0.000257
0.221316 0.012812 0.000801 0.000002 0.000000 0.000000
0.222915 0.012761 0.000772 0.000002 2.451831 0.000005
0.224356 0.012445 0.000656 0.000001 0.000000 0.000000
0.000649 0.014445 0.000646 0.000002 1138.637756 0.002200
0.001923 0.012987 0.000800 0.000002 0.000000 0.000000
0.003254 0.013535 0.000630 0.000002 203.912310 0.000348
0.004919 0.014209 0.000760 0.000002 112.391624 0.000207
0.006402 0.014290 0.000722 0.000002 0.000000 0.000000
0.008043 0.014139 0.000625 0.000002 84.744441 0.000152
0.009622 0.014105 0.000681 0.000002 0.000000 0.000000
0.010995 0.014071 0.000690 0.000002 0.000000 0.000000
0.012325 0.014123 0.000619 0.000002 0.000000 0.000000
0.013650 0.013922 0.000717 0.000002 0.000000 0.000000
0.014973 0.013812 0.000592 0.000002 87.102438 0.000155
0.016205 0.014819 0.000797 0.000002 40.770598 0.000086
0.017606 0.014116 0.000767 0.000002 86.197324 0.000172
0.019020 0.014422 0.000601 0.000002 76.349797 0.000133
0.020202 0.013270 0.000662 0.000002 0.000000 0.000000
0.021583 0.013595 0.000755 0.000002 92.898835 0.000189
0.023152 0.013604 0.000815 0.000002 0.000000 0.000000
0.024466 0.014450 0.000748 0.000002 0.000000 0.000000
0.025824 0.014134 0.000640 0.000002 0.000000 0.000000
0.027251 0.014130 0.000786 0.000002 38.247715 0.000074
0.028707 0.014010 0.000672 0.000002 0.000000 0.000000
0.030156 0.013627 0.000718 0.000002 0.000000 0.000000
0.030954 0.014788 0.000670 0.000002 194.472614 0.000330
0.032462 0.014868 0.000696 0.000002 91.327362 0.000173
0.033702 0.014084 0.000771 0.000002 0.000000 0.000000
0.035187 0.013625 0.000775 0.000002 0.000000 0.000000
0.036648 0.013881 0.000696 0.000002 200.551259 0.000412
0.038926 0.013532 0.000792 0.000002 156.254815 0.000339
0.040523 0.013359 0.000747 0.000002 0.000000 0.000000
0.042006 0.013673 0.000763 0.000002 98.360398 0.000193
0.043417 0.013599 0.000642 0.000002 0.000000 0.000000
0.044833 0.013306 0.000794 0.000002 0.000000 0.000000
0.046429 0.013588 0.000746 0.000002 16.140145 0.000031
0.048059 0.013724 0.000664 0.000002 0.000000 0.000000
0.049343 0.013964 0.000605 0.000002 0.000000 0.000000
0.050641 0.014042 0.000686 0.000002 0.000000 0.000000
0.051578 0.015153 0.000705 0.000002 0.000000 0.000000
0.053179 0.014789 0.000624 0.000002 0.000000 0.000000
0.054583 0.014459 0.000789 0.000002 241.584087 0.000464
0.056096 0.014250 0.000738 0.000002 29.785166 0.000056
0.057589 0.014079 0.000761 0.000002 27.590425 0.000053
0.059024 0.013857 0.000677 0.000002 0.000000 0.000000
0.060219 0.014607 0.000598 0.000002 0.000000 0.000000
0.061419 0.014144 0.000687 0.000002 0.000000 0.000000
0.062856 0.014506 0.000794 0.000002 0.000000 0.000000
0.064248 0.014235 0.000618 0.000002 25.162477 0.000051
0.065647 0.014440 0.000793 0.000002 0.000000 0.000000
0.067020 0.014872 0.000600 0.000002 141.579983 0.000227
0.068319 0.014744 0.000705 0.000002 204.386547 0.000369
0.069584 0.014133 0.000700 0.000002 21.189816 0.000040
0.071001 0.014256 0.000723 0.000002 0.305067 0.000001
0.072281 0.014306 0.000559 0.000001 214.529833 0.000313
0.074340 0.014310 0.000739 0.000002 31.067576 0.000062
0.075784 0.013769 0.000778 0.000002 0.000000 0.000000
0.077280 0.014046 0.000739 0.000002 0.000000 0.000000
0.078760 0.013866 0.000745 0.000002 0.000000 0.000000
0.080182 0.013672 0.000686 0.000002 0.000000 0.000000
0.081272 0.014575 0.000718 0.000002 51.272342 0.000100
0.082628 0.014081 0.000724 0.000002 42.523763 0.000074
0.083908 0.013672 0.000620 0.000002 0.554244 0.000001
0.085178 0.013823 0.000658 0.000002 0.000000 0.000000
0.086505 0.013953 0.000670 0.000002 0.000000 0.000000
0.087935 0.014011 0.000751 0.000002 0.000000 0.000000
0.089374 0.014079 0.000689 0.000002 0.000000 0.000000
0.090760 0.014138 0.000698 0.000002 0.000000 0.000000
0.092156 0.014182 0.000694 0.000002 0.000000 0.000000
0.093449 0.014732 0.000705 0.000002 0.000000 0.000000
0.095001 0.014214 0.000588 0.000002 16.801978 0.000030
0.096452 0.013948 0.000765 0.000002 0.000000 0.000000
0.097888 0.014483 0.000762 0.000002 78.538498 0.000174
0.099418 0.014103 0.000807 0.000002 0.000000 0.000000
0.100952 0.014234 0.000726 0.000002 0.000000 0.000000
0.102456 0.013926 0.000805 0.000002 163.349371 0.000369
0.104136 0.013668 0.000810 0.000002 59.792385 0.000136
0.105807 0.014034 0.000695 0.000002 0.000000 0.000000
0.107002 0.013473 0.000595 0.000002 0.000000 0.000000
0.108406 0.013948 0.000807 0.000002 154.747730 0.000343
0.110192 0.013949 0.000715 0.000002 24.271024 0.000052
0.111664 0.014160 0.000756 0.000002 40.235158 0.000084
0.113196 0.013935 0.000791 0.000002 224.086139 0.000506
0.114759 0.014185 0.000790 0.000002 5.231499 0.000011
0.116191 0.014124 0.000635 0.000002 0.000000 0.000000
0.117486 0.014519 0.000692 0.000002 0.000000 0.000000
0.118999 0.014055 0.000834 0.000002 0.000000 0.000000
0.120544 0.014288 0.000706 0.000002 251.294143 0.000495
0.121916 0.014274 0.000654 0.000002 46.600827 0.000079
0.123490 0.014480 0.000647 0.000002 0.000000 0.000000
0.124805 0.014798 0.000701 0.000002 0.000000 0.000000
0.126284 0.015104 0.000809 0.000002 1.719871 0.000004
0.127220 0.013940 0.000678 0.000002 0.000000 0.000000
0.128565 0.014264 0.000679 0.000002 0.000000 0.000000
0.129677 0.013498 0.000671 0.000002 0.000000 0.000000
0.130421 0.014713 0.000750 0.000002 62.836071 0.000121
0.131895 0.014663 0.000726 0.000002 0.000000 0.000000
0.133463 0.014602 0.000734 0.000002 0.000000 0.000000
0.135146 0.014432 0.000786 0.000002 65.046040 0.000136
0.136522 0.013885 0.000689 0.000002 0.000000 0.000000
0.137860 0.014522 0.000777 0.000002 0.000000 0.000000
0.139451 0.014440 0.000805 0.000002 0.000000 0.000000
0.141029 0.014363 0.000768 0.000002 26.025462 0.000055
0.142571 0.014254 0.000773 0.000002 74.226949 0.000156
0.144068 0.014097 0.000714 0.000002 0.000000 0.000000
0.145547 0.014072 0.000681 0.000002 0.000000 0.000000
0.147695 0.013454 0.000749 0.000002 0.000000 0.000000
0.149083 0.013989 0.000724 0.000002 0.000000 0.000000
0.150602 0.014251 0.000800 0.000002 0.000000 0.000000
0.152197 0.014189 0.000781 0.000002 0.000000 0.000000
0.153569 0.014471 0.000620 0.000002 0.000000 0.000000
0.155344 0.013845 0.000819 0.000002 0.000000 0.000000
0.156996 0.013696 0.000836 0.000002 0.000000 0.000000
0.158465 0.013797 0.000635 0.000002 0.000000 0.000000
0.159891 0.013683 0.000738 0.000002 36.959052 0.000069
0.161359 0.013881 0.000729 0.000002 0.000000 0.000000
0.162769 0.013808 0.000667 0.000002 0.000000 0.000000
0.164232 0.013974 0.000794 0.000002 0.000000 0.000000
0.166086 0.014107 0.000849 0.000002 0.000000 0.000000
0.167569 0.013635 0.000683 0.000002 0.000000 0.000000
0.168845 0.013262 0.000629 0.000002 0.000000 0.000000
0.169803 0.014407 0.000717 0.000002 22.149960 0.000045
0.171470 0.013968 0.000790 0.000002 0.059934 0.000000
0.173094 0.013974 0.000834 0.000002 0.000000 0.000000
0.174558 0.014279 0.000662 0.000002 0.000000 0.000000
0.176067 0.014466 0.000639 0.000002 0.035585 0.000000
0.177449 0.014553 0.000746 0.000002 0.000000 0.000000
0.178930 0.014580 0.000732 0.000002 0.000000 0.000000
0.180409 0.014463 0.000749 0.000002 0.000000 0.000000
0.181133 0.013166 0.000735 0.000002 0.000000 0.000000
0.182600 0.013484 0.000745 0.000002 61.162637 0.000128
0.184552 0.013659 0.000751 0.000002 446.943035 0.000949
0.185997 0.013907 0.000702 0.000002 51.140850 0.000109
0.187493 0.013803 0.000797 0.000002 50.536767 0.000103
0.188974 0.013845 0.000677 0.000002 -0.558200 -0.000001
0.190372 0.013663 0.000733 0.000002 4.173994 0.000008
0.191771 0.013907 0.000687 0.000002 136.928426 0.000234
0.193024 0.014139 0.000587 0.000002 171.113601 0.000281
0.194256 0.013926 0.000663 0.000002 41.173754 0.000074
0.195576 0.014339 0.000720 0.000002 118.945285 0.000234
0.196917 0.013982 0.000668 0.000002 7.227904 0.000013
0.198240 0.014215 0.000676 0.000002 37.313860 0.000059
0.199485 0.014214 0.000570 0.000002 501.976284 0.000759
0.201725 0.013637 0.000701 0.000002 203.155296 0.000404
0.203003 0.014405 0.000711 0.000002 141.366849 0.000285
0.204990 0.013781 0.000817 0.000002 240.716771 0.000486
0.206439 0.013633 0.000640 0.000002 70.499523 0.000127
0.207767 0.013288 0.000732 0.000002 206.700033 0.000394
0.209325 0.013250 0.000823 0.000002 485.973606 0.001000
0.210835 0.013466 0.000702 0.000002 0.000000 0.000000
0.212004 0.013948 0.000540 0.000002 125.436375 0.000217
0.213272 0.014187 0.000749 0.000002 0.000000 0.000000
0.214831 0.014419 0.000646 0.000002 230.907354 0.000402
0.216141 0.014676 0.000688 0.000002 40.806538 0.000073
0.217151 0.013750 0.000682 0.000002 0.000000 0.000000
0.218624 0.013950 0.000802 0.000002 293.295548 0.000595
0.220070 0.014233 0.000672 0.000002 186.807931 0.000351
0.221425 0.014282 0.000671 0.000002 0.000000 0.000000
0.222718 0.014106 0.000534 0.000002 0.000000 0.000000
0.224003 0.013760 0.000704 0.000002 0.000000 0.000000
0.001024 0.015889 0.000847 0.000003 387.286155 0.001036
0.002159 0.014610 0.000841 0.000002 19.241411 0.000041
0.003630 0.014740 0.000632 0.000002 187.877371 0.000337
0.005254 0.015521 0.000594 0.000002 201.141590 0.000354
0.007397 0.015243 0.000654 0.000002 95.796944 0.000177
0.008822 0.015322 0.000774 0.000002 0.000000 0.000000
0.010288 0.015399 0.000693 0.000002 0.000000 0.000000
0.011708 0.015321 0.000729 0.000002 0.000000 0.000000
0.013135 0.015228 0.000687 0.000002 0.000000 0.000000
0.014623 0.015136 0.000778 0.000002 179.188194 0.000359
0.015658 0.016260 0.000745 0.000002 0.000000 0.000000
0.017012 0.016069 0.000601 0.000002 0.000000 0.000000
0.018184 0.015473 0.000708 0.000002 0.000000 0.000000
0.019562 0.015568 0.000667 0.000002 43.007821 0.000073
0.020468 0.014577 0.000672 0.000002 10.290109 0.000019
0.021810 0.015102 0.000769 0.000002 114.426083 0.000234
0.023223 0.015081 0.000643 0.000002 9.423276 0.000017
0.025361 0.015725 0.000810 0.000002 0.000000 0.000000
0.026894 0.015637 0.000724 0.000002 0.000000 0.000000
0.028169 0.015195 0.000619 0.000002 18.242161 0.000031
0.029666 0.014880 0.000621 0.000002 0.000000 0.000000
0.030348 0.015909 0.000597 0.000002 0.000000 0.000000
0.031598 0.015940 0.000650 0.000002 126.009824 0.000200
0.032789 0.016067 0.000547 0.000001 73.191236 0.000103
0.033938 0.015548 0.000709 0.000002 0.000000 0.000000
0.035529 0.015160 0.000797 0.000002 38.032491 0.000088
0.037090 0.015230 0.000725 0.000002 161.073557 0.000342
0.038455 0.014916 0.000671 0.000002 0.000000 0.000000
0.039902 0.014759 0.000776 0.000002 2.855826 0.000006
0.041328 0.014933 0.000660 0.000002 0.000000 0.000000
0.042649 0.014939 0.000657 0.000002 65.354387 0.000111
0.044028 0.014824 0.000717 0.000002 0.000000 0.000000
0.045457 0.014682 0.000716 0.000002 44.797692 0.000087
0.047220 0.014761 0.000667 0.000002 0.000000 0.000000
0.048549 0.014978 0.000678 0.000002 0.000000 0.000000
0.050090 0.015451 0.000812 0.000002 0.000000 0.000000
0.051202 0.016545 0.000721 0.000002 18.856206 0.000036
0.052733 0.016194 0.000850 0.000002 2.902829 0.000006
0.054224 0.015877 0.000674 0.000002 54.220863 0.000100
0.055567 0.015591 0.000697 0.000002 0.000000 0.000000
0.056963 0.015408 0.000708 0.000002 72.585002 0.000136
0.058584 0.015214 0.000749 0.000002 0.000000 0.000000
0.059888 0.015882 0.000715 0.000002 0.000000 0.000000
0.061384 0.015634 0.000801 0.000002 0.000000 0.000000
0.063072 0.015874 0.000585 0.000002 0.000000 0.000000
0.064535 0.015622 0.000798 0.000002 0.000000 0.000000
0.066169 0.015816 0.000672 0.000002 141.506419 0.000259
0.067676 0.015959 0.000669 0.000002 99.030035 0.000166
0.069043 0.015913 0.000667 0.000002 0.000000 0.000000
0.070171 0.015307 0.000613 0.000002 44.338985 0.000074
0.071770 0.015477 0.000715 0.000002 0.000000 0.000000
0.073183 0.015198 0.000710 0.000002 124.431949 0.000225
0.074296 0.016005 0.000665 0.000002 170.141638 0.000313
0.075349 0.015114 0.000551 0.000002 60.777897 0.000093
0.076560 0.015328 0.000679 0.000002 0.315164 0.000001
0.078037 0.015399 0.000800 0.000002 0.000000 0.000000
0.079688 0.014916 0.000641 0.000002 0.000000 0.000000
0.080723 0.015966 0.000777 0.000002 10.615531 0.000022
0.082464 0.015389 0.000594 0.000002 56.268365 0.000095
0.083702 0.015023 0.000693 0.000002 8.737019 0.000017
0.085718 0.015120 0.000737 0.000002 0.000000 0.000000
0.087152 0.015216 0.000686 0.000002 1.368822 0.000002
0.088662 0.015288 0.000714 0.000002 0.000000 0.000000
0.090167 0.015526 0.000808 0.000002 0.000000 0.000000
0.091749 0.015593 0.000774 0.000002 0.000000 0.000000
0.093077 0.016161 0.000669 0.000002 0.000000 0.000000
0.094434 0.015790 0.000737 0.000002 0.000000 0.000000
0.095763 0.015247 0.000696 0.000002 5.843098 0.000012
0.097141 0.015878 0.000820 0.000002 0.000000 0.000000
0.098687 0.015746 0.000718 0.000002 0.000000 0.000000
0.100162 0.015504 0.000769 0.000002 0.000000 0.000000
0.101664 0.015500 0.000720 0.000002 0.000000 0.000000
0.103031 0.015254 0.000643 0.000002 0.000000 0.000000
0.104309 0.015097 0.000630 0.000002 0.000000 0.000000
0.105618 0.015438 0.000721 0.000002 0.000000 0.000000
0.107066 0.014890 0.000822 0.000002 0.000000 0.000000
0.108467 0.015416 0.000662 0.000002 143.603364 0.000256
0.109840 0.015328 0.000707 0.000002 63.389189 0.000118
0.111186 0.015477 0.000645 0.000002 53.370822 0.000097
0.112604 0.015380 0.000771 0.000002 258.782491 0.000549
0.114124 0.015594 0.000756 0.000002 0.000000 0.000000
0.115699 0.015479 0.000805 0.000002 0.000000 0.000000
0.117184 0.015894 0.000716 0.000002 0.000000 0.000000
0.118469 0.015435 0.000634 0.000002 0.000000 0.000000
0.119862 0.015587 0.000761 0.000002 223.071763 0.000446
0.121305 0.015460 0.000681 0.000002 75.812072 0.000137
0.122618 0.015458 0.000632 0.000002 0.000000 0.000000
0.123919 0.015962 0.000761 0.000002 0.000000 0.000000
0.125358 0.016314 0.000709 0.000002 0.000000 0.000000
0.126750 0.016517 0.000671 0.000002 16.455334 0.000033
0.127817 0.015530 0.000783 0.000002 0.615386 0.000001
0.129228 0.015411 0.000633 0.000002 0.000000 0.000000
0.130314 0.016123 0.000664 0.000002 0.000000 0.000000
0.131633 0.016020 0.000657 0.000002 0.000000 0.000000
0.132970 0.015930 0.000682 0.000002 0.000000 0.000000
0.134403 0.015775 0.000748 0.000002 0.000000 0.000000
0.135914 0.015761 0.000749 0.000002 41.231786 0.000088
0.137323 0.015905 0.000668 0.000002 0.000000 0.000000
0.138701 0.015763 0.000717 0.000002 0.000000 0.000000
0.140432 0.015789 0.000777 0.000002 0.000000 0.000000
0.141989 0.015683 0.000770 0.000002 0.000000 0.000000
0.143504 0.015465 0.000754 0.000002 3.551829 0.000007
0.144857 0.015185 0.000620 0.000002 0.000000 0.000000
0.146840 0.014691 0.000749 0.000002 0.000000 0.000000
0.148163 0.014947 0.000584 0.000002 0.000000 0.000000
0.149548 0.015407 0.000761 0.000002 0.000000 0.000000
0.151246 0.015631 0.000717 0.000002 24.007183 0.000051
0.152775 0.015677 0.000810 0.000002 54.808323 0.000121
0.154698 0.015316 0.000787 0.000002 0.000000 0.000000
0.156261 0.015109 0.000740 0.000002 0.000000 0.000000
0.157748 0.015074 0.000730 0.000002 0.000000 0.000000
0.159216 0.014992 0.000735 0.000002 0.000000 0.000000
0.160598 0.015033 0.000645 0.000002 0.000000 0.000000
0.162241 0.015189 0.000811 0.000002 27.070396 0.000055
0.163698 0.015538 0.000686 0.000002 4.894188 0.000010
0.165027 0.015217 0.000682 0.000002 15.331964 0.000030
0.166288 0.015817 0.000715 0.000002 6.903975 0.000013
0.167333 0.014945 0.000647 0.000002 0.000000 0.000000
0.168673 0.015337 0.000746 0.000002 0.000000 0.000000
0.170033 0.016117 0.000614 0.000002 0.000000 0.000000
0.170875 0.015229 0.000588 0.000002 0.000000 0.000000
0.172190 0.015265 0.000689 0.000002 0.000000 0.000000
0.173597 0.015497 0.000733 0.000002 0.000000 0.000000
0.175175 0.015651 0.000843 0.000002 0.000000 0.000000
0.176671 0.015731 0.000654 0.000002 0.000000 0.000000
0.178146 0.015957 0.000810 0.000002 0.000000 0.000000
0.179750 0.015864 0.000790 0.000002 0.000000 0.000000
0.181887 0.014800 0.000752 0.000002 35.190960 0.000072
0.183463 0.014783 0.000806 0.000002 0.000000 0.000000
0.185083 0.015119 0.000803 0.000002 240.287414 0.000512
0.186732 0.015278 0.000854 0.000002 154.827945 0.000338
0.188243 0.015067 0.000673 0.000002 0.081282 0.000000
0.189541 0.015081 0.000626 0.000002 0.735738 0.000001
0.190903 0.015036 0.000737 0.000002 5.220846 0.000009
0.192309 0.015183 0.000678 0.000002 220.806101 0.000361
0.193780 0.015336 0.000800 0.000002 0.000000 0.000000
0.195170 0.015699 0.000637 0.000002 10.569579 0.000020
0.196467 0.015428 0.000688 0.000002 136.012850 0.000238
0.197803 0.015465 0.000648 0.000002 0.000000 0.000000
0.199072 0.015465 0.000620 0.000002 0.000000 0.000000
0.200383 0.015150 0.000728 0.000002 470.292525 0.000861
0.201766 0.015000 0.000663 0.000002 290.599716 0.000506
0.202677 0.015972 0.000669 0.000002 80.768182 0.000155
0.204278 0.015255 0.000821 0.000002 257.541310 0.000562
0.205738 0.015036 0.000643 0.000002 0.000000 0.000000
0.207054 0.014811 0.000688 0.000002 4.935599 0.000008
0.208481 0.014590 0.000753 0.000002 209.579277 0.000391
0.209878 0.014603 0.000639 0.000002 436.820075 0.000819
0.211272 0.015136 0.000855 0.000002 274.811289 0.000580
0.212762 0.015533 0.000687 0.000002 193.572058 0.000382
0.214190 0.015654 0.000746 0.000002 48.500926 0.000091
0.215549 0.015853 0.000622 0.000002 0.000000 0.000000
0.217574 0.015214 0.000842 0.000002 204.826223 0.000453
0.219175 0.015420 0.000769 0.000002 155.539371 0.000315
0.220691 0.015510 0.000749 0.000002 110.991527 0.000213
0.222302 0.015381 0.000730 0.000002 0.000000 0.000000
0.223762 0.015129 0.000687 0.000002 0.000000 0.000000
0.000788 0.017507 0.000788 0.000002 0.000000 0.000000
0.002685 0.015994 0.000640 0.000002 34.326353 0.000070
0.004025 0.016012 0.000701 0.000002 135.692313 0.000229
0.005127 0.016713 0.000605 0.000002 226.634204 0.000342
0.006400 0.016238 0.000754 0.000002 81.520918 0.000153
0.007958 0.016796 0.000861 0.000002 0.000000 0.000000
0.009568 0.016665 0.000754 0.000002 0.000000 0.000000
0.011046 0.016615 0.000724 0.000002 0.000000 0.000000
0.012567 0.016598 0.000794 0.000002 0.000000 0.000000
0.014161 0.016635 0.000792 0.000002 48.652700 0.000099
0.015232 0.017553 0.000617 0.000002 0.000000 0.000000
0.016649 0.017347 0.000726 0.000002 0.000000 0.000000
0.018026 0.016910 0.000703 0.000002 0.000000 0.000000
0.019400 0.016892 0.000663 0.000002 0.000000 0.000000
0.020820 0.016350 0.000815 0.000002 0.000000 0.000000
0.022610 0.016313 0.000682 0.000002 122.063220 0.000237
0.023952 0.016169 0.000667 0.000002 8.671104 0.000015
0.024873 0.017129 0.000664 0.000002 0.000000 0.000000
0.026237 0.016939 0.000687 0.000002 0.000000 0.000000
0.027769 0.016921 0.000821 0.000002 0.000000 0.000000
0.029116 0.016022 0.000639 0.000002 0.000000 0.000000
0.030637 0.017300 0.000806 0.000002 0.000000 0.000000
0.032176 0.017195 0.000731 0.000002 0.000000 0.000000
0.033607 0.016974 0.000674 0.000002 124.416831 0.000208
0.034960 0.016582 0.000735 0.000002 -0.035568 -0.000000
0.036468 0.016593 0.000773 0.000002 0.000000 0.000000
0.037970 0.016800 0.000743 0.000002 0.983795 0.000002
0.039204 0.016061 0.000696 0.000002 0.000000 0.000000
0.040597 0.016088 0.000698 0.000002 0.000000 0.000000
0.041977 0.016125 0.000680 0.000002 0.000000 0.000000
0.043379 0.016102 0.000716 0.000002 0.000000 0.000000
0.044878 0.016057 0.000776 0.000002 0.000000 0.000000
0.046326 0.015785 0.000688 0.000002 23.926365 0.000044
0.047639 0.016000 0.000641 0.000002 0.000000 0.000000
0.048883 0.016233 0.000619 0.000002 1.675320 0.000003
0.049920 0.016876 0.000601 0.000002 0.000000 0.000000
0.052266 0.017702 0.000729 0.000002 0.000000 0.000000
0.053797 0.017392 0.000750 0.000002 0.000000 0.000000
0.055099 0.016863 0.000645 0.000002 26.784876 0.000045
0.056450 0.016750 0.000695 0.000002 0.480964 0.000001
0.057873 0.016539 0.000743 0.000002 13.717835 0.000028
0.059212 0.017219 0.000759 0.000002 0.712862 0.000001
0.060708 0.017088 0.000743 0.000002 0.507169 0.000001
0.062242 0.016979 0.000794 0.000002 0.052020 0.000000
0.063806 0.017014 0.000771 0.000002 0.247695 0.000000
0.065341 0.016989 0.000764 0.000002 0.192042 0.000000
0.066828 0.017065 0.000725 0.000002 126.160649 0.000237
0.068307 0.017245 0.000760 0.000002 9.607759 0.000017
0.069674 0.017049 0.000621 0.000002 24.786177 0.000044
0.070774 0.016414 0.000647 0.000002 85.144474 0.000151
0.072739 0.016637 0.000793 0.000002 0.000000 0.000000
0.074096 0.017429 0.000774 0.000002 73.046085 0.000144
0.075527 0.016239 0.000589 0.000002 32.812472 0.000049
0.076702 0.016660 0.000660 0.000002 53.247185 0.000093
0.078054 0.016968 0.000727 0.000002 91.346902 0.000172
0.079276 0.016238 0.000696 0.000002 0.000000 0.000000
0.080974 0.017550 0.000769 0.000002 0.000000 0.000000
0.082030 0.016567 0.000662 0.000002 79.248087 0.000136
0.083361 0.016534 0.000669 0.000002 0.000000 0.000000
0.084632 0.016048 0.000692 0.000002 0.000000 0.000000
0.086422 0.016339 0.000653 0.000002 11.450237 0.000020
0.087834 0.016516 0.000767 0.000002 29.490076 0.000056
0.089309 0.016807 0.000734 0.000002 0.396061 0.000001
0.090800 0.016982 0.000768 0.000002 1.870896 0.000004
0.092289 0.017366 0.000770 0.000002 10.788004 0.000024
0.093990 0.017143 0.000667 0.000002 0.000000 0.000000
0.095416 0.016933 0.000769 0.000002 0.000000 0.000000
0.096804 0.017327 0.000668 0.000002 0.000000 0.000000
0.098149 0.017058 0.000699 0.000002 64.062741 0.000112
0.099545 0.016796 0.000623 0.000002 0.000000 0.000000
0.100962 0.016714 0.000679 0.000002 0.000000 0.000000
0.102679 0.016661 0.000804 0.000002 0.000000 0.000000
0.104069 0.016313 0.000600 0.000002 0.000000 0.000000
0.105220 0.016722 0.000618 0.000002 0.000000 0.000000
0.106617 0.016557 0.000779 0.000002 0.000557 0.000000
0.107971 0.016551 0.000576 0.000002 0.120747 0.000000
0.109194 0.016518 0.000647 0.000002 197.018246 0.000316
0.110530 0.016646 0.000695 0.000002 44.737884 0.000084
0.111992 0.016790 0.000766 0.000002 240.876449 0.000528
0.113515 0.016987 0.000764 0.000002 0.000000 0.000000
0.114980 0.016845 0.000691 0.000002 0.000000 0.000000
0.116263 0.016811 0.000584 0.000002 0.000000 0.000000
0.117433 0.017247 0.000660 0.000002 0.000000 0.000000
0.118657 0.016731 0.000667 0.000002 0.000000 0.000000
0.119964 0.017009 0.000666 0.000002 132.812323 0.000253
0.121415 0.016919 0.000783 0.000002 0.000000 0.000000
0.122785 0.016713 0.000597 0.000002 0.000000 0.000000
0.123880 0.017409 0.000686 0.000002 0.000000 0.000000
0.125287 0.017799 0.000771 0.000002 0.000000 0.000000
0.126898 0.017942 0.000762 0.000002 0.000000 0.000000
0.128288 0.017099 0.000851 0.000002 0.000000 0.000000
0.129787 0.017347 0.000668 0.000002 9.832512 0.000018
0.131130 0.017253 0.000674 0.000002 0.000000 0.000000
0.132420 0.017112 0.000621 0.000001 0.000000 0.000000
0.133741 0.017043 0.000671 0.000002 0.001539 0.000000
0.135169 0.017071 0.000758 0.000002 0.000000 0.000000
0.136641 0.017116 0.000713 0.000002 0.000000 0.000000
0.138058 0.017083 0.000704 0.000002 0.000000 0.000000
0.139501 0.016954 0.000714 0.000002 0.000000 0.000000
0.141375 0.017083 0.000757 0.000002 0.000000 0.000000
0.142941 0.016782 0.000677 0.000002 0.000000 0.000000
0.144558 0.016525 0.000740 0.000002 0.000000 0.000000
0.146013 0.016026 0.000796 0.000002 0.000000 0.000000
0.147512 0.016043 0.000690 0.000002 0.000000 0.000000
0.148768 0.016624 0.000685 0.000002 47.158149 0.000085
0.150204 0.016705 0.000681 0.000002 0.000000 0.000000
0.151616 0.017012 0.000713 0.000002 0.670453 0.000001
0.152958 0.017106 0.000632 0.000002 34.078731 0.000058
0.154253 0.016755 0.000709 0.000002 0.000000 0.000000
0.155692 0.016495 0.000752 0.000002 0.000000 0.000000
0.157110 0.016322 0.000671 0.000002 12.954823 0.000022
0.158532 0.016355 0.000712 0.000002 0.000000 0.000000
0.159937 0.016218 0.000666 0.000002 0.000000 0.000000
0.161313 0.016392 0.000708 0.000002 0.000000 0.000000
0.162763 0.016577 0.000649 0.000002 0.000000 0.000000
0.164676 0.016697 0.000831 0.000002 9.244162 0.000021
0.166142 0.017278 0.000746 0.000002 0.000000 0.000000
0.167596 0.016245 0.000662 0.000002 0.000000 0.000000
0.168891 0.016860 0.000748 0.000002 0.000000 0.000000
0.170335 0.017584 0.000867 0.000002 0.000000 0.000000
0.171255 0.016391 0.000627 0.000002 0.000000 0.000000
0.172623 0.016657 0.000765 0.000002 0.000000 0.000000
0.174147 0.016898 0.000771 0.000002 0.000000 0.000000
0.175638 0.017119 0.000695 0.000002 0.000000 0.000000
0.177064 0.017064 0.000730 0.000002 0.000000 0.000000
0.178426 0.017403 0.000654 0.000002 0.000000 0.000000
0.179691 0.017269 0.000616 0.000002 0.000000 0.000000
0.181241 0.016123 0.000720 0.000002 0.492110 0.000001
0.182618 0.016010 0.000662 0.000002 6.109775 0.000011
0.184010 0.016239 0.000749 0.000002 234.398984 0.000449
0.185722 0.016470 0.000671 0.000002 0.000000 0.000000
0.187036 0.016777 0.000676 0.000002 225.158624 0.000456
0.188559 0.016568 0.000861 0.000002 50.438874 0.000114
0.190118 0.016279 0.000688 0.000002 0.000000 0.000000
0.191483 0.016326 0.000673 0.000002 0.000000 0.000000
0.192808 0.016397 0.000635 0.000002 141.577366 0.000247
0.194186 0.016945 0.000848 0.000002 146.880531 0.000317
0.195776 0.016937 0.000741 0.000002 0.000000 0.000000
0.197140 0.016601 0.000664 0.000002 130.651346 0.000230
0.198446 0.016584 0.000642 0.000002 0.000000 0.000000
0.199891 0.016411 0.000626 0.000002 358.468038 0.000571
0.201278 0.016313 0.000738 0.000002 92.275451 0.000161
0.202334 0.017372 0.000758 0.000002 0.000000 0.000000
0.203852 0.016769 0.000751 0.000002 156.099491 0.000301
0.205267 0.016413 0.000701 0.000002 94.107061 0.000169
0.206540 0.016024 0.000629 0.000002 0.000000 0.000000
0.207895 0.015948 0.000726 0.000002 20.587434 0.000037
0.209280 0.015743 0.000649 0.000002 547.649014 0.000891
0.210366 0.016490 0.000666 0.000002 0.000000 0.000000
0.211783 0.016667 0.000760 0.000002 124.101354 0.000239
0.213304 0.016894 0.000778 0.000002 144.457578 0.000289
0.214793 0.016982 0.000713 0.000002 51.013364 0.000099
0.216714 0.016616 0.000771 0.000002 0.000000 0.000000
0.218252 0.016649 0.000745 0.000002 244.980780 0.000486
0.219759 0.016740 0.000675 0.000002 130.036306 0.000249
0.221558 0.016631 0.000668 0.000002 95.777169 0.000187
0.223182 0.016617 0.000776 0.000003 0.000000 0.000000
0.000566 0.018843 0.000564 0.000002 0.000000 0.000000
0.002339 0.017360 0.000770 0.000002 0.000000 0.000000
0.003962 0.017451 0.000739 0.000002 24.131327 0.000047
0.005254 0.017912 0.000601 0.000002 76.979038 0.000116
0.006411 0.017581 0.000589 0.000002 0.000000 0.000000
0.007564 0.018435 0.000825 0.000002 0.000000 0.000000
0.009056 0.018042 0.000715 0.000002 0.000000 0.000000
0.010369 0.017774 0.000613 0.000002 0.000000 0.000000
0.011764 0.017969 0.000794 0.000002 0.000000 0.000000
0.013340 0.017766 0.000605 0.000002 0.000000 0.000000
0.014401 0.018651 0.000761 0.000002 0.000000 0.000000
0.015998 0.018565 0.000650 0.000002 0.000000 0.000000
0.017591 0.018428 0.000707 0.000002 0.000000 0.000000
0.018976 0.018398 0.000661 0.000002 0.563152 0.000001
0.020299 0.017962 0.000732 0.000002 0.000000 0.000000
0.021809 0.017638 0.000809 0.000002 0.000000 0.000000
0.023431 0.017562 0.000812 0.000002 109.526853 0.000228
0.025312 0.018489 0.000764 0.000002 0.000000 0.000000
0.026921 0.018371 0.000845 0.000002 0.000000 0.000000
0.028445 0.018359 0.000674 0.000002 0.000000 0.000000
0.029198 0.017291 0.000633 0.000002 0.000000 0.000000
0.030141 0.018849 0.000811 0.000002 0.539179 0.000001
0.031677 0.018590 0.000747 0.000002 1.305608 0.000003
0.033148 0.018321 0.000749 0.000002 91.984571 0.000173
0.034572 0.017975 0.000706 0.000002 0.000000 0.000000
0.035929 0.017920 0.000652 0.000002 0.000000 0.000000
0.037244 0.018043 0.000667 0.000002 0.000000 0.000000
0.038546 0.018063 0.000634 0.000002 0.000000 0.000000
0.039897 0.017464 0.000843 0.000002 0.000000 0.000000
0.041406 0.017363 0.000669 0.000002 0.000000 0.000000
0.042809 0.017682 0.000755 0.000002 0.000000 0.000000
0.044069 0.017205 0.000586 0.000002 0.000000 0.000000
0.045928 0.017167 0.000751 0.000002 1.143269 0.000002
0.047437 0.017399 0.000771 0.000002 0.000000 0.000000
0.048857 0.017550 0.000655 0.000002 0.000000 0.000000
0.050756 0.017991 0.000792 0.000002 0.000000 0.000000
0.051797 0.019025 0.000674 0.000002 9.855883 0.000016
0.053259 0.018749 0.000710 0.000002 0.000000 0.000000
0.054612 0.018488 0.000616 0.000002 0.000000 0.000000
0.055822 0.017983 0.000688 0.000002 0.000000 0.000000
0.057319 0.017980 0.000801 0.000002 0.000000 0.000000
0.058722 0.018651 0.000754 0.000002 0.000000 0.000000
0.060099 0.018322 0.000631 0.000002 0.000000 0.000000
0.061535 0.018257 0.000662 0.000002 34.872174 0.000061
0.063004 0.018261 0.000692 0.000002 0.000000 0.000000
0.064441 0.018388 0.000743 0.000002 0.000000 0.000000
0.066055 0.018462 0.000873 0.000002 78.919485 0.000172
0.067522 0.018354 0.000599 0.000002 17.521384 0.000032
0.068766 0.018540 0.000605 0.000002 0.000000 0.000000
0.070139 0.018359 0.000769 0.000002 0.000000 0.000000
0.071469 0.017615 0.000741 0.000002 74.101607 0.000145
0.072816 0.018098 0.000671 0.000002 31.346368 0.000056
0.075598 0.017561 0.000733 0.000002 0.000000 0.000000
0.077021 0.018056 0.000773 0.000002 0.164309 0.000000
0.078434 0.018305 0.000663 0.000002 47.205505 0.000087
0.079540 0.017572 0.000664 0.000002 0.000000 0.000000
0.080182 0.018847 0.000739 0.000002 -0.011010 -0.000000
0.081552 0.018852 0.000630 0.000002 29.079600 0.000048
0.082490 0.017875 0.000725 0.000002 31.049009 0.000059
0.084109 0.017634 0.000661 0.000002 22.986217 0.000046
0.085393 0.017205 0.000692 0.000002 18.450675 0.000033
0.086918 0.017646 0.000683 0.000002 0.000000 0.000000
0.088345 0.017947 0.000753 0.000002 74.308852 0.000143
0.089775 0.018157 0.000687 0.000002 0.000000 0.000000
0.091218 0.018512 0.000796 0.000002 0.000000 0.000000
0.093360 0.018360 0.000692 0.000002 0.369650 0.000001
0.094850 0.018399 0.000799 0.000002 0.000000 0.000000
0.096278 0.018517 0.000634 0.000002 0.000000 0.000000
0.097687 0.018378 0.000700 0.000002 49.335108 0.000081
0.099020 0.018101 0.000644 0.000002 0.000000 0.000000
0.100304 0.017876 0.000655 0.000002 0.000000 0.000000
0.101744 0.017944 0.000776 0.000002 0.000000 0.000000
0.103187 0.018045 0.000670 0.000002 0.000000 0.000000
0.104481 0.017760 0.000656 0.000002 0.000000 0.000000
0.105951 0.018047 0.000840 0.000002 -0.368366 -0.000001
0.107509 0.017789 0.000740 0.000002 0.014707 0.000000
0.108919 0.017807 0.000670 0.000002 0.000000 0.000000
0.110319 0.018081 0.000755 0.000002 52.253555 0.000108
0.111853 0.018352 0.000803 0.000002 -0.027583 -0.000000
0.113253 0.018504 0.000605 0.000002 0.000000 0.000000
0.114409 0.018058 0.000628 0.000002 0.000000 0.000000
0.115782 0.018054 0.000744 0.000002 0.000000 0.000000
0.117059 0.018441 0.000589 0.000001 0.000000 0.000000
0.118287 0.018244 0.000652 0.000002 0.005025 0.000000
0.119633 0.018332 0.000697 0.000002 0.000000 0.000000
0.121005 0.018321 0.000673 0.000002 0.000000 0.000000
0.122525 0.018156 0.000855 0.000002 0.000000 0.000000
0.124185 0.018728 0.000650 0.000002 0.000000 0.000000
0.125981 0.019210 0.000800 0.000002 0.000000 0.000000
0.127640 0.019398 0.000868 0.000002 0.000000 0.000000
0.129006 0.018527 0.000747 0.000002 0.000000 0.000000
0.130455 0.018557 0.000697 0.000002 0.000000 0.000000
0.131813 0.018392 0.000651 0.000002 0.000000 0.000000
0.133092 0.018138 0.000602 0.000002 0.000000 0.000000
0.134375 0.018319 0.000689 0.000002 0.000000 0.000000
0.135853 0.018392 0.000729 0.000002 0.000000 0.000000
0.137327 0.018396 0.000730 0.000002 0.000000 0.000000
0.138892 0.018375 0.000831 0.000002 0.000000 0.000000
0.140339 0.018034 0.000645 0.000002 0.000000 0.000000
0.142452 0.018066 0.000696 0.000002 0.000000 0.000000
0.143917 0.017897 0.000774 0.000002 0.000000 0.000000
0.145512 0.017770 0.000823 0.000002 0.000000 0.000000
0.146861 0.017203 0.000640 0.000002 0.000000 0.000000
0.148055 0.017832 0.000709 0.000002 0.000000 0.000000
0.149385 0.017776 0.000622 0.000002 9.036182 0.000015
0.150738 0.018264 0.000816 0.000002 45.182137 0.000095
0.152327 0.018359 0.000763 0.000002 0.000000 0.000000
0.153769 0.018090 0.000643 0.000002 47.520284 0.000080
0.155138 0.017799 0.000659 0.000002 0.000000 0.000000
0.156422 0.017657 0.000620 0.000002 0.000000 0.000000
0.157629 0.017464 0.000584 0.000002 0.000000 0.000000
0.158887 0.017811 0.000716 0.000002 0.000000 0.000000
0.160367 0.017609 0.000778 0.000002 0.000000 0.000000
0.161907 0.017743 0.000768 0.000002 14.902865 0.000030
0.163523 0.017897 0.000834 0.000002 0.000000 0.000000
0.165050 0.018318 0.000708 0.000002 0.000000 0.000000
0.166438 0.018683 0.000690 0.000002 20.750530 0.000040
0.167608 0.017676 0.000769 0.000002 0.000000 0.000000
0.168956 0.018359 0.000713 0.000002 0.000000 0.000000
0.170360 0.019257 0.000806 0.000002 0.000000 0.000000
0.171834 0.017838 0.000637 0.000002 0.000000 0.000000
0.173141 0.018003 0.000676 0.000002 0.000000 0.000000
0.174780 0.018173 0.000651 0.000002 0.000000 0.000000
0.176360 0.018406 0.000780 0.000002 0.000000 0.000000
0.177809 0.018611 0.000683 0.000002 0.000000 0.000000
0.179239 0.018530 0.000724 0.000002 0.000000 0.000000
0.180750 0.018179 0.000780 0.000002 0.000000 0.000000
0.182143 0.017409 0.000806 0.000002 35.002637 0.000072
0.183555 0.017503 0.000594 0.000002 114.325136 0.000179
0.184773 0.017385 0.000628 0.000002 54.264531 0.000090
0.186119 0.017997 0.000851 0.000002 296.599058 0.000615
0.187787 0.018023 0.000779 0.000002 53.547603 0.000113
0.189301 0.017975 0.000729 0.000002 69.666837 0.000148
0.190740 0.017585 0.000753 0.000002 0.000000 0.000000
0.192125 0.017453 0.000624 0.000002 98.115853 0.000160
0.193253 0.018252 0.000748 0.000002 0.000000 0.000000
0.195056 0.018213 0.000689 0.000002 105.136567 0.000200
0.196360 0.018239 0.000615 0.000002 10.033571 0.000019
0.197768 0.017948 0.000822 0.000002 63.637046 0.000130
0.199325 0.017675 0.000759 0.000002 218.026708 0.000383
0.200656 0.017482 0.000586 0.000002 55.098480 0.000088
0.201424 0.018474 0.000669 0.000002 52.704621 0.000088
0.203525 0.018149 0.000664 0.000002 0.000000 0.000000
0.204866 0.017825 0.000713 0.000002 248.572705 0.000423
0.206237 0.017440 0.000712 0.000002 5.505292 0.000011
0.207690 0.017605 0.000751 0.000002 296.145018 0.000595
0.208812 0.016883 0.000584 0.000002 259.295050 0.000433
0.209514 0.017992 0.000729 0.000002 230.164225 0.000442
0.210853 0.017713 0.000639 0.000002 29.290030 0.000049
0.212335 0.018039 0.000719 0.000002 13.097001 0.000027
0.213886 0.018388 0.000825 0.000002 20.472279 0.000047
0.215866 0.017704 0.000581 0.000002 22.556518 0.000044
0.217482 0.017962 0.000777 0.000002 23.039548 0.000048
0.219001 0.017801 0.000629 0.000002 107.996850 0.000193
0.220731 0.017794 0.000760 0.000002 272.378818 0.000521
0.222225 0.017870 0.000736 0.000002 0.000000 0.000000
0.223937 0.017995 0.000763 0.000003 0.000000 0.000000
0.000771 0.020080 0.000689 0.000002 0.000000 0.000000
0.001834 0.019156 0.000705 0.000002 0.000000 0.000000
0.003111 0.018589 0.000681 0.000002 3.055081 0.000006
0.004490 0.019055 0.000774 0.000002 21.756420 0.000045
0.006141 0.018779 0.000639 0.000002 15.356084 0.000027
0.007324 0.020031 0.000788 0.000002 0.000000 0.000000
0.008718 0.019466 0.000711 0.000002 0.000000 0.000000
0.010070 0.019055 0.000702 0.000002 0.000000 0.000000
0.011426 0.019547 0.000740 0.000002 0.000000 0.000000
0.012903 0.019104 0.000802 0.000002 10.328623 0.000021
0.015329 0.019815 0.000718 0.000002 0.000000 0.000000
0.016846 0.019725 0.000787 0.000002 0.000000 0.000000
0.018357 0.019639 0.000725 0.000002 0.000000 0.000000
0.019768 0.019565 0.000675 0.000002 0.000000 0.000000
0.021139 0.019182 0.000745 0.000002 0.000000 0.000000
0.022553 0.018937 0.000687 0.000002 0.000000 0.000000
0.023928 0.018976 0.000688 0.000002 107.520570 0.000199
0.024815 0.019954 0.000632 0.000002 0.000000 0.000000
0.026131 0.019710 0.000706 0.000002 0.000000 0.000000
0.027544 0.019825 0.000711 0.000002 0.000000 0.000000
0.028889 0.019608 0.000651 0.000002 0.000000 0.000000
0.029919 0.020577 0.000762 0.000002 0.000000 0.000000
0.031226 0.019949 0.000682 0.000002 0.000000 0.000000
0.032557 0.019738 0.000662 0.000002 0.000000 0.000000
0.033887 0.019541 0.000678 0.000002 85.920542 0.000149
0.035109 0.019162 0.000596 0.000002 0.000000 0.000000
0.036464 0.019252 0.000760 0.000002 35.010433 0.000069
0.038036 0.019424 0.000819 0.000002 0.000000 0.000000
0.039576 0.019044 0.000768 0.000002 0.000000 0.000000
0.041107 0.018785 0.000783 0.000002 0.000000 0.000000
0.042432 0.018929 0.000548 0.000002 0.000000 0.000000
0.043577 0.018777 0.000581 0.000002 0.000000 0.000000
0.044880 0.018325 0.000795 0.000002 0.000000 0.000000
0.046452 0.018630 0.000802 0.000002 14.261294 0.000031
0.048086 0.018692 0.000664 0.000002 0.000000 0.000000
0.049489 0.018711 0.000665 0.000002 0.000000 0.000000
0.050558 0.019349 0.000579 0.000002 0.000000 0.000000
0.052701 0.019980 0.000642 0.000002 0.000000 0.000000
0.053783 0.020945 0.000807 0.000002 0.000000 0.000000
0.054386 0.019678 0.000593 0.000002 0.000000 0.000000
0.055782 0.019485 0.000814 0.000002 41.202519 0.000091
0.057568 0.019360 0.000601 0.000002 0.000000 0.000000
0.059768 0.019543 0.000621 0.000002 -0.521024 -0.000001
0.060968 0.019375 0.000591 0.000002 0.000000 0.000000
0.062298 0.019513 0.000745 0.000002 0.072925 0.000000
0.063645 0.019474 0.000602 0.000002 0.000000 0.000000
0.065070 0.019708 0.000716 0.000002 60.427865 0.000115
0.066485 0.020007 0.000730 0.000002 0.000000 0.000000
0.067953 0.019662 0.000777 0.000002 10.286930 0.000019
0.069416 0.019657 0.000685 0.000002 -0.026910 -0.000000
0.070786 0.019664 0.000685 0.000002 158.390139 0.000271
0.071833 0.018910 0.000605 0.000002 29.652795 0.000050
0.073623 0.019208 0.000702 0.000002 0.000000 0.000000
0.074784 0.018617 0.000599 0.000002 30.317629 0.000047
0.075967 0.019060 0.000663 0.000002 0.000000 0.000000
0.077441 0.019587 0.000815 0.000002 0.000000 0.000000
0.078945 0.019553 0.000685 0.000002 13.585112 0.000025
0.079970 0.020597 0.000778 0.000002 12.897589 0.000026
0.081344 0.020137 0.000671 0.000002 2.837229 0.000005
0.082504 0.019657 0.000585 0.000002 0.699924 0.000001
0.083520 0.018864 0.000704 0.000002 53.614523 0.000094
0.085846 0.018524 0.000703 0.000002 29.570025 0.000055
0.087152 0.018997 0.000686 0.000002 0.000000 0.000000
0.088472 0.019380 0.000686 0.000002 33.394600 0.000060
0.089786 0.019474 0.000630 0.000002 0.000000 0.000000
0.091011 0.020004 0.000704 0.000002 0.000000 0.000000
0.092427 0.019537 0.000786 0.000002 0.000000 0.000000
0.093963 0.019676 0.000755 0.000002 0.000000 0.000000
0.095602 0.019724 0.000722 0.000002 0.000000 0.000000
0.097031 0.019568 0.000659 0.000002 32.353293 0.000057
0.098543 0.019439 0.000653 0.000002 0.000000 0.000000
0.099860 0.019142 0.000683 0.000002 0.000000 0.000000
0.101291 0.019427 0.000775 0.000002 40.047552 0.000082
0.102686 0.019238 0.000625 0.000002 0.000000 0.000000
0.104141 0.019207 0.000825 0.000002 0.000000 0.000000
0.105744 0.019736 0.000860 0.000002 -0.045436 -0.000000
0.107261 0.019244 0.000735 0.000002 0.000000 0.000000
0.109294 0.019181 0.000748 0.000002 29.499442 0.000063
0.110805 0.019519 0.000762 0.000002 0.000000 0.000000
0.112179 0.019747 0.000629 0.000002 0.000000 0.000000
0.113547 0.019808 0.000728 0.000002 0.000000 0.000000
0.114889 0.019224 0.000632 0.000002 0.000000 0.000000
0.116232 0.019475 0.000734 0.000002 0.000000 0.000000
0.117579 0.019507 0.000588 0.000002 0.000000 0.000000
0.118890 0.019543 0.000722 0.000002 0.000000 0.000000
0.120369 0.019613 0.000757 0.000002 0.000000 0.000000
0.121899 0.019664 0.000768 0.000002 0.000000 0.000000
0.123347 0.019759 0.000679 0.000002 0.000000 0.000000
0.124698 0.019953 0.000678 0.000002 0.000000 0.000000
0.125836 0.020673 0.000668 0.000002 0.000000 0.000000
0.127074 0.020722 0.000571 0.000002 0.000000 0.000000
0.128519 0.020830 0.000807 0.000002 0.000000 0.000000
0.129737 0.019846 0.000757 0.000002 0.000000 0.000000
0.131252 0.019780 0.000759 0.000002 0.000000 0.000000
0.132741 0.019460 0.000765 0.000002 0.000000 0.000000
0.134066 0.019531 0.000561 0.000002 0.000000 0.000000
0.135251 0.019623 0.000627 0.000002 0.000000 0.000000
0.136582 0.019622 0.000701 0.000002 0.000000 0.000000
0.138038 0.019712 0.000756 0.000002 0.000000 0.000000
0.140014 0.019329 0.000642 0.000002 0.000000 0.000000
0.141349 0.018978 0.000734 0.000002 0.000000 0.000000
0.143241 0.019087 0.000592 0.000002 0.000000 0.000000
0.144478 0.019218 0.000649 0.000002 0.000000 0.000000
0.145765 0.019423 0.000653 0.000002 0.000000 0.000000
0.146830 0.018563 0.000714 0.000002 0.000000 0.000000
0.147973 0.019551 0.000788 0.000002 0.000000 0.000000
0.149433 0.019144 0.000728 0.000002 0.000000 0.000000
0.150707 0.019772 0.000692 0.000002 138.260127 0.000249
0.152014 0.019695 0.000609 0.000002 0.000000 0.000000
0.153279 0.019429 0.000665 0.000002 0.000000 0.000000
0.154690 0.019150 0.000762 0.000002 34.933161 0.000064
0.156171 0.018992 0.000722 0.000002 0.000000 0.000000
0.157766 0.018853 0.000748 0.000002 0.000000 0.000000
0.159644 0.018938 0.000614 0.000002 0.000000 0.000000
0.161016 0.018970 0.000729 0.000002 0.000000 0.000000
0.162523 0.019142 0.000761 0.000002 20.727920 0.000042
0.164040 0.019378 0.000734 0.000002 0.000000 0.000000
0.165169 0.020263 0.000700 0.000002 0.000000 0.000000
0.166535 0.020052 0.000682 0.000002 0.000000 0.000000
0.167722 0.019101 0.000661 0.000002 7.509009 0.000013
0.168997 0.019701 0.000627 0.000002 0.000000 0.000000
0.169681 0.020882 0.000736 0.000002 0.000000 0.000000
0.172072 0.019297 0.000838 0.000002 0.000000 0.000000
0.173674 0.019338 0.000762 0.000002 0.000000 0.000000
0.175238 0.019571 0.000819 0.000002 0.000000 0.000000
0.176670 0.019829 0.000630 0.000002 0.000000 0.000000
0.177976 0.019964 0.000669 0.000002 0.000000 0.000000
0.179289 0.019990 0.000645 0.000002 0.000000 0.000000
0.180621 0.019671 0.000718 0.000002 0.000000 0.000000
0.181871 0.019117 0.000645 0.000002 16.497248 0.000029
0.182971 0.018540 0.000596 0.000001 143.911071 0.000212
0.184256 0.018581 0.000675 0.000002 0.177564 0.000000
0.185353 0.019225 0.000597 0.000002 0.000000 0.000000
0.186999 0.019318 0.000737 0.000002 29.763157 0.000062
0.188638 0.019374 0.000818 0.000002 64.650635 0.000147
0.190278 0.019096 0.000758 0.000002 113.334306 0.000241
0.191687 0.018707 0.000704 0.000002 54.336046 0.000113
0.192781 0.019716 0.000784 0.000002 110.840223 0.000244
0.194241 0.019361 0.000719 0.000002 83.806964 0.000168
0.195709 0.019513 0.000757 0.000002 13.348978 0.000026
0.197271 0.019494 0.000801 0.000002 0.000000 0.000000
0.198829 0.019071 0.000723 0.000002 214.206307 0.000410
0.200191 0.018718 0.000579 0.000002 0.000000 0.000000
0.201176 0.019818 0.000698 0.000002 0.430831 0.000001
0.202617 0.019241 0.000749 0.000002 0.000000 0.000000
0.204413 0.019082 0.000624 0.000002 209.136541 0.000345
0.205660 0.018891 0.000591 0.000002 0.227457 0.000000
0.206950 0.018851 0.000699 0.000002 78.176691 0.000146
0.208376 0.018897 0.000713 0.000002 0.000000 0.000000
0.209725 0.019449 0.000744 0.000002 162.073161 0.000297
0.210959 0.018938 0.000591 0.000002 0.000000 0.000000
0.212154 0.019458 0.000712 0.000002 2.790546 0.000005
0.213488 0.019834 0.000674 0.000002 0.883365 0.000002
0.215043 0.019306 0.000652 0.000002 5.940306 0.000012
0.216327 0.018879 0.000681 0.000002 0.000000 0.000000
0.218510 0.019077 0.000739 0.000002 130.222867 0.000254
0.219894 0.018921 0.000640 0.000002 0.000000 0.000000
0.221378 0.019141 0.000734 0.000002 265.793473 0.000503
0.222803 0.019176 0.000690 0.000002 0.000000 0.000000
0.000661 0.021426 0.000660 0.000002 0.000000 0.000000
0.001880 0.020813 0.000635 0.000002 0.000000 0.000000
0.003018 0.020018 0.000751 0.000002 0.000000 0.000000
0.004431 0.020544 0.000717 0.000002 0.000000 0.000000
0.005804 0.020099 0.000724 0.000002 0.564203 0.000001
0.008564 0.020893 0.000720 0.000002 0.000000 0.000000
0.009883 0.020423 0.000679 0.000002 0.000000 0.000000
0.011116 0.021021 0.000690 0.000002 0.000000 0.000000
0.012442 0.020596 0.000701 0.000002 0.000000 0.000000
0.013933 0.020259 0.000746 0.000002 0.000000 0.000000
0.016098 0.021012 0.000700 0.000002 0.000000 0.000000
0.017557 0.021216 0.000773 0.000002 0.000000 0.000000
0.019184 0.021002 0.000869 0.000002 0.000000 0.000000
0.020685 0.020576 0.000690 0.000002 0.000000 0.000000
0.022091 0.020308 0.000726 0.000002 0.000000 0.000000
0.023523 0.020305 0.000701 0.000002 0.000000 0.000000
0.024208 0.021528 0.000692 0.000002 0.000000 0.000000
0.025624 0.021092 0.000764 0.000002 12.246087 0.000023
0.027123 0.021215 0.000740 0.000002 0.000000 0.000000
0.028503 0.020883 0.000680 0.000002 13.193434 0.000024
0.029383 0.021956 0.000708 0.000002 0.000000 0.000000
0.030870 0.021793 0.000780 0.000002 2.689113 0.000006
0.032089 0.020998 0.000675 0.000002 0.000000 0.000000
0.033554 0.020961 0.000781 0.000002 0.000000 0.000000
0.034917 0.020420 0.000676 0.000002 89.896018 0.000163
0.036271 0.020708 0.000708 0.000002 4.261277 0.000009
0.037787 0.021078 0.000853 0.000002 14.552518 0.000033
0.039229 0.020489 0.000704 0.000002 0.000000 0.000000
0.040474 0.020072 0.000597 0.000002 0.000000 0.000000
0.041791 0.020153 0.000714 0.000002 0.000000 0.000000
0.043162 0.019989 0.000663 0.000002 0.000000 0.000000
0.044399 0.019655 0.000616 0.000002 0.000000 0.000000
0.045732 0.020037 0.000767 0.000002 0.000000 0.000000
0.047344 0.019816 0.000682 0.000002 0.000000 0.000000
0.048804 0.019994 0.000789 0.000002 0.000000 0.000000
0.050169 0.020556 0.000687 0.000002 0.000000 0.000000
0.051457 0.020284 0.000630 0.000002 0.000000 0.000000
0.052335 0.021244 0.000671 0.000002 0.000000 0.000000
0.055368 0.021023 0.000778 0.000002 0.000000 0.000000
0.056949 0.020663 0.000842 0.000002 0.000000 0.000000
0.058581 0.020358 0.000816 0.000002 0.000000 0.000000
0.059997 0.020811 0.000667 0.000002 1.467768 0.000003
0.061353 0.020621 0.000702 0.000002 18.266239 0.000033
0.062673 0.021107 0.000704 0.000002 12.413189 0.000023
0.064061 0.020743 0.000730 0.000002 0.000000 0.000000
0.065549 0.021119 0.000722 0.000002 0.000000 0.000000
0.067451 0.020993 0.000645 0.000002 0.000000 0.000000
0.068722 0.020857 0.000631 0.000002 0.000000 0.000000
0.070098 0.020916 0.000744 0.000002 0.000000 0.000000
0.071451 0.020781 0.000615 0.000002 0.000000 0.000000
0.072481 0.020009 0.000671 0.000002 0.000000 0.000000
0.073705 0.020592 0.000684 0.000002 0.000000 0.000000
0.074890 0.019855 0.000644 0.000002 0.000000 0.000000
0.076082 0.020382 0.000658 0.000002 0.000000 0.000000
0.077197 0.020996 0.000614 0.000002 0.000000 0.000000
0.078512 0.020874 0.000706 0.000002 0.000000 0.000000
0.081171 0.021562 0.000763 0.000002 7.620115 0.000015
0.082441 0.020920 0.000658 0.000002 0.000000 0.000000
0.083649 0.020274 0.000712 0.000002 50.625762 0.000090
0.084794 0.019447 0.000697 0.000002 61.264076 0.000117
0.086097 0.019886 0.000678 0.000002 0.000000 0.000000
0.087399 0.020355 0.000694 0.000002 0.000000 0.000000
0.088758 0.020751 0.000714 0.000002 0.000000 0.000000
0.090121 0.021075 0.000687 0.000002 0.000000 0.000000
0.091992 0.020932 0.000645 0.000002 0.000000 0.000000
0.093321 0.020965 0.000684 0.000002 0.000000 0.000000
0.094777 0.020967 0.000769 0.000002 0.000000 0.000000
0.096215 0.020979 0.000668 0.000002 0.000000 0.000000
0.097587 0.020821 0.000712 0.000002 0.000000 0.000000
0.098937 0.020673 0.000641 0.000002 0.000000 0.000000
0.100289 0.020545 0.000713 0.000002 0.000000 0.000000
0.101741 0.020920 0.000785 0.000002 0.000000 0.000000
0.103183 0.020488 0.000719 0.000002 0.000000 0.000000
0.104548 0.020673 0.000658 0.000002 38.036063 0.000072
0.105710 0.021341 0.000683 0.000002 16.652981 0.000030
0.106953 0.020732 0.000701 0.000002 11.572564 0.000023
0.108310 0.020283 0.000729 0.000002 4.414440 0.000009
0.109758 0.020627 0.000759 0.000002 0.000000 0.000000
0.111234 0.021040 0.000774 0.000002 0.000000 0.000000
0.112651 0.020923 0.000637 0.000002 0.000000 0.000000
0.115241 0.020549 0.000716 0.000002 0.000000 0.000000
0.116672 0.020883 0.000738 0.000002 0.000000 0.000000
0.118105 0.020736 0.000703 0.000002 0.000000 0.000000
0.119532 0.020846 0.000728 0.000002 0.000000 0.000000
0.121063 0.021044 0.000815 0.000002 0.000000 0.000000
0.122640 0.021019 0.000762 0.000002 0.000000 0.000000
0.124033 0.021086 0.000632 0.000002 0.000000 0.000000
0.125105 0.021744 0.000622 0.000002 0.000000 0.000000
0.126517 0.021979 0.000799 0.000002 0.000000 0.000000
0.127993 0.022249 0.000702 0.000002 0.000000 0.000000
0.129322 0.022026 0.000633 0.000002 0.000000 0.000000
0.130510 0.021202 0.000801 0.000002 0.000000 0.000000
0.131881 0.020969 0.000584 0.000002 0.000000 0.000000
0.133081 0.020807 0.000624 0.000002 0.000000 0.000000
0.134481 0.020802 0.000776 0.000002 0.000000 0.000000
0.135850 0.020694 0.000597 0.000002 0.000000 0.000000
0.137924 0.021200 0.000709 0.000002 0.000000 0.000000
0.139321 0.020596 0.000802 0.000002 0.000000 0.000000
0.140914 0.020445 0.000791 0.000002 0.000000 0.000000
0.142335 0.020009 0.000692 0.000002 0.000000 0.000000
0.143663 0.020272 0.000662 0.000001 0.000000 0.000000
0.144979 0.020488 0.000668 0.000002 0.000000 0.000000
0.146313 0.020631 0.000669 0.000002 0.000000 0.000000
0.147549 0.020861 0.000588 0.000002 0.000000 0.000000
0.148777 0.020732 0.000640 0.000002 0.657276 0.000001
0.150083 0.021011 0.000696 0.000002 0.000000 0.000000
0.151459 0.020867 0.000636 0.000002 0.000000 0.000000
0.152822 0.020672 0.000658 0.000002 0.000000 0.000000
0.154163 0.020511 0.000686 0.000002 0.000000 0.000000
0.155604 0.020346 0.000743 0.000002 20.026451 0.000038
0.157064 0.020153 0.000730 0.000002 0.000000 0.000000
0.158636 0.020118 0.000754 0.000002 0.000000 0.000000
0.160141 0.020187 0.000729 0.000002 0.000000 0.000000
0.161595 0.020306 0.000728 0.000002 0.000000 0.000000
0.163100 0.020597 0.000804 0.000002 0.000000 0.000000
0.164356 0.021363 0.000667 0.000002 0.000000 0.000000
0.165510 0.021725 0.000537 0.000002 0.000000 0.000000
0.166745 0.021462 0.000724 0.000002 0.000000 0.000000
0.167883 0.020486 0.000733 0.000002 2.039635 0.000004
0.168561 0.021676 0.000636 0.000002 6.627039 0.000013
0.170399 0.022206 0.000753 0.000002 0.000000 0.000000
0.171153 0.020608 0.000761 0.000002 0.000000 0.000000
0.172810 0.020592 0.000638 0.000002 0.000000 0.000000
0.174197 0.020722 0.000716 0.000002 0.000000 0.000000
0.175890 0.021052 0.000796 0.000002 0.000000 0.000000
0.177370 0.021182 0.000689 0.000002 0.000000 0.000000
0.178696 0.021115 0.000618 0.000002 0.000000 0.000000
0.180158 0.020917 0.000593 0.000002 0.000000 0.000000
0.181863 0.020628 0.000841 0.000002 0.000000 0.000000
0.183027 0.019749 0.000613 0.000002 112.287956 0.000182
0.184327 0.019977 0.000663 0.000002 0.000000 0.000000
0.185966 0.020440 0.000762 0.000002 10.625827 0.000021
0.187380 0.020673 0.000671 0.000002 0.000000 0.000000
0.188761 0.020917 0.000730 0.000002 129.812963 0.000253
0.190020 0.020445 0.000615 0.000002 8.439371 0.000016
0.191438 0.020725 0.000831 0.000002 18.605662 0.000043
0.192898 0.021200 0.000704 0.000002 124.589678 0.000270
0.194580 0.020816 0.000775 0.000002 28.716806 0.000063
0.196073 0.020839 0.000618 0.000002 0.019862 0.000000
0.197237 0.020856 0.000547 0.000001 14.875050 0.000022
0.198448 0.020468 0.000725 0.000002 103.174260 0.000179
0.199814 0.020084 0.000690 0.000002 0.000000 0.000000
0.200805 0.021118 0.000649 0.000002 0.000000 0.000000
0.202272 0.020699 0.000708 0.000002 90.390958 0.000169
0.203720 0.020315 0.000791 0.000002 151.018451 0.000294
0.205241 0.020123 0.000707 0.000002 11.029447 0.000020
0.206933 0.020267 0.000716 0.000002 61.272533 0.000122
0.208362 0.020323 0.000712 0.000002 0.000000 0.000000
0.209697 0.020846 0.000653 0.000002 87.338186 0.000148
0.210956 0.020265 0.000733 0.000002 0.396849 0.000001
0.212208 0.020891 0.000666 0.000002 -0.382219 -0.000001
0.213423 0.021089 0.000565 0.000002 2.442950 0.000004
0.214645 0.020641 0.000737 0.000002 -0.018207 -0.000000
0.216019 0.020235 0.000695 0.000002 21.227249 0.000039
0.217489 0.020196 0.000776 0.000002 68.180011 0.000141
0.218935 0.020431 0.000681 0.000002 86.934576 0.000161
0.220360 0.020234 0.000752 0.000002 0.000000 0.000000
0.221915 0.020471 0.000701 0.000002 159.530145 0.000314
0.223683 0.020245 0.000686 0.000002 0.000000 0.000000
0.000712 0.023283 0.000708 0.000002 0.000000 0.000000
0.001847 0.022273 0.000797 0.000002 0.000000 0.000000
0.003287 0.021555 0.000810 0.000002 62.139358 0.000133
0.005653 0.021449 0.000634 0.000002 0.000000 0.000000
0.007117 0.021650 0.000843 0.000002 0.000000 0.000000
0.008580 0.022430 0.000815 0.000002 0.000000 0.000000
0.009967 0.021809 0.000702 0.000002 0.000000 0.000000
0.012128 0.022070 0.000764 0.000002 30.716673 0.000062
0.013390 0.021510 0.000616 0.000002 0.000000 0.000000
0.014748 0.021513 0.000740 0.000002 0.000000 0.000000
0.016316 0.022459 0.000760 0.000002 0.000000 0.000000
0.017726 0.022568 0.000589 0.000002 0.000000 0.000000
0.019061 0.022610 0.000745 0.000002 0.000000 0.000000
0.020433 0.022013 0.000738 0.000002 0.000000 0.000000
0.021798 0.022058 0.000627 0.000002 24.311321 0.000047
0.022840 0.021412 0.000599 0.000002 0.000000 0.000000
0.023052 0.022663 0.000667 0.000002 0.000000 0.000000
0.025177 0.022367 0.000587 0.000002 0.000000 0.000000
0.026470 0.022515 0.000713 0.000002 0.000000 0.000000
0.027971 0.022486 0.000788 0.000002 0.000000 0.000000
0.029189 0.023361 0.000709 0.000002 0.000000 0.000000
0.030865 0.023382 0.000810 0.000002 0.000000 0.000000
0.032079 0.022562 0.000652 0.000002 0.000000 0.000000
0.033406 0.022423 0.000681 0.000002 0.000000 0.000000
0.034878 0.021954 0.000859 0.000002 15.203525 0.000034
0.036390 0.022077 0.000658 0.000002 0.000000 0.000000
0.037644 0.022649 0.000720 0.000002 0.000000 0.000000
0.039040 0.022013 0.000710 0.000002 11.544978 0.000022
0.040339 0.021397 0.000729 0.000002 0.428077 0.000001
0.041805 0.021623 0.000755 0.000002 0.000000 0.000000
0.043250 0.021364 0.000713 0.000002 0.000000 0.000000
0.044541 0.020911 0.000647 0.000002 0.000000 0.000000
0.045589 0.021779 0.000714 0.000002 0.000000 0.000000
0.046769 0.021046 0.000675 0.000002 0.000000 0.000000
0.048140 0.021371 0.000734 0.000002 0.000000 0.000000
0.049519 0.021816 0.000714 0.000002 0.151658 0.000000
0.050993 0.021748 0.000762 0.000002 0.000000 0.000000
0.053187 0.022417 0.000776 0.000002 0.000000 0.000000
0.054633 0.022329 0.000668 0.000002 0.000000 0.000000
0.056245 0.022152 0.000650 0.000002 0.000000 0.000000
0.057568 0.022050 0.000675 0.000002 0.000000 0.000000
0.059033 0.021915 0.000796 0.000002 0.239722 0.000000
0.060495 0.022069 0.000674 0.000002 0.000000 0.000000
0.061802 0.022123 0.000634 0.000002 -0.702884 -0.000001
0.063003 0.022372 0.000592 0.000002 0.000000 0.000000
0.064514 0.022108 0.000706 0.000002 0.000000 0.000000
0.066613 0.021952 0.000625 0.000002 0.000000 0.000000
0.067883 0.022203 0.000638 0.000002 0.000000 0.000000
0.069339 0.022283 0.000819 0.000002 0.000000 0.000000
0.071038 0.022122 0.000782 0.000002 0.000000 0.000000
0.072585 0.021411 0.000682 0.000002 0.000000 0.000000
0.073865 0.021991 0.000722 0.000002 0.000000 0.000000
0.074901 0.021125 0.000625 0.000002 0.000000 0.000000
0.076105 0.021940 0.000830 0.000002 10.483366 0.000022
0.077853 0.022317 0.000854 0.000002 0.000000 0.000000
0.079379 0.021976 0.000696 0.000002 0.000000 0.000000
0.080456 0.022770 0.000641 0.000002 0.000000 0.000000
0.082287 0.022524 0.000711 0.000002 0.000000 0.000000
0.083623 0.021796 0.000810 0.000002 0.000000 0.000000
0.085031 0.020953 0.000828 0.000002 0.000000 0.000000
0.086452 0.021282 0.000631 0.000002 0.000000 0.000000
0.087718 0.021724 0.000709 0.000002 0.000000 0.000000
0.089174 0.022164 0.000745 0.000002 0.000000 0.000000
0.091161 0.021970 0.000684 0.000002 0.000000 0.000000
0.092586 0.022210 0.000760 0.000002 0.000000 0.000000
0.094101 0.022331 0.000750 0.000002 0.000000 0.000000
0.095585 0.022223 0.000702 0.000002 0.000000 0.000000
0.096991 0.022114 0.000703 0.000002 0.000000 0.000000
0.098472 0.022011 0.000770 0.000002 0.000000 0.000000
0.100054 0.022032 0.000792 0.000002 0.000000 0.000000
0.101396 0.022226 0.000563 0.000002 0.000000 0.000000
0.102892 0.022063 0.000829 0.000002 0.000000 0.000000
0.104485 0.022108 0.000763 0.000002 0.000000 0.000000
0.105770 0.022659 0.000634 0.000002 0.000000 0.000000
0.107143 0.022225 0.000800 0.000002 0.000000 0.000000
0.108694 0.021784 0.000813 0.000002 0.000000 0.000000
0.110184 0.022069 0.000687 0.000002 0.000000 0.000000
0.111738 0.022469 0.000673 0.000002 0.000000 0.000000
0.113028 0.022177 0.000638 0.000002 0.000000 0.000000
0.113969 0.021184 0.000704 0.000002 0.000000 0.000000
0.115859 0.022166 0.000773 0.000002 0.000000 0.000000
0.117505 0.022105 0.000737 0.000002 0.000000 0.000000
0.119041 0.022310 0.000811 0.000002 0.000000 0.000000
0.120460 0.022554 0.000628 0.000002 0.000000 0.000000
0.121927 0.022455 0.000837 0.000002 0.000000 0.000000
0.123463 0.022302 0.000703 0.000002 0.000000 0.000000
0.124712 0.023088 0.000772 0.000002 0.000000 0.000000
0.126085 0.023341 0.000624 0.000002 0.000000 0.000000
0.127461 0.023690 0.000790 0.000002 0.000000 0.000000
0.128907 0.023310 0.000698 0.000002 0.000000 0.000000
0.130328 0.022984 0.000754 0.000002 0.000000 0.000000
0.131619 0.022257 0.000727 0.000002 0.000000 0.000000
0.132964 0.022059 0.000632 0.000002 0.000000 0.000000
0.134155 0.022096 0.000559 0.000002 0.000000 0.000000
0.135435 0.021901 0.000678 0.000002 0.000000 0.000000
0.136712 0.021723 0.000610 0.000002 0.000000 0.000000
0.138968 0.022217 0.000748 0.000002 0.000000 0.000000
0.140233 0.021687 0.000620 0.000002 0.000000 0.000000
0.141654 0.021878 0.000813 0.000002 0.000000 0.000000
0.142820 0.021160 0.000555 0.000002 0.000000 0.000000
0.144140 0.021477 0.000627 0.000002 0.000000 0.000000
0.145418 0.021756 0.000672 0.000002 0.000000 0.000000
0.146801 0.021939 0.000722 0.000002 0.000000 0.000000
0.148236 0.021980 0.000712 0.000002 0.000000 0.000000
0.149531 0.022258 0.000605 0.000002 0.000000 0.000000
0.150880 0.022154 0.000694 0.000002 0.000000 0.000000
0.152279 0.021934 0.000710 0.000002 0.000000 0.000000
0.153597 0.021698 0.000628 0.000002 0.000000 0.000000
0.154974 0.021699 0.000749 0.000002 0.000000 0.000000
0.156429 0.021546 0.000713 0.000002 0.000000 0.000000
0.157853 0.021371 0.000721 0.000002 0.000000 0.000000
0.159360 0.021495 0.000792 0.000002 0.000000 0.000000
0.160791 0.021403 0.000631 0.000002 0.000000 0.000000
0.162054 0.021602 0.000644 0.000002 0.000000 0.000000
0.163161 0.022615 0.000853 0.000002 0.000000 0.000000
0.164717 0.022684 0.000700 0.000002 0.000000 0.000000
0.166127 0.022813 0.000698 0.000002 0.000000 0.000000
0.167593 0.022699 0.000773 0.000002 0.000000 0.000000
0.169099 0.022936 0.000735 0.000002 0.000000 0.000000
0.171382 0.023317 0.000703 0.000002 0.000000 0.000000
0.171874 0.021930 0.000745 0.000002 0.000000 0.000000
0.173348 0.021882 0.000707 0.000002 0.000000 0.000000
0.174752 0.022018 0.000691 0.000002 0.000000 0.000000
0.176593 0.022475 0.000749 0.000002 0.000000 0.000000
0.178124 0.022385 0.000727 0.000002 0.000000 0.000000
0.179601 0.022160 0.000764 0.000002 1.693910 0.000003
0.181097 0.022019 0.000740 0.000002 0.693805 0.000001
0.182429 0.021948 0.000594 0.000002 68.540468 0.000115
0.183383 0.021038 0.000724 0.000002 4.120364 0.000007
0.184803 0.021389 0.000739 0.000002 0.000000 0.000000
0.186257 0.021969 0.000784 0.000002 -0.061401 -0.000000
0.187792 0.022039 0.000752 0.000002 193.280475 0.000391
0.189943 0.021807 0.000749 0.000002 20.666354 0.000039
0.191238 0.022094 0.000553 0.000002 0.000000 0.000000
0.192446 0.022586 0.000752 0.000002 103.349324 0.000199
0.193959 0.022260 0.000796 0.000002 119.986273 0.000243
0.195457 0.022026 0.000719 0.000002 37.359711 0.000066
0.196846 0.021975 0.000637 0.000001 0.000000 0.000000
0.198158 0.021844 0.000682 0.000002 0.000000 0.000000
0.199491 0.021432 0.000696 0.000002 18.582381 0.000032
0.200454 0.022436 0.000695 0.000002 19.902572 0.000033
0.201830 0.022067 0.000730 0.000002 68.896176 0.000120
0.203253 0.021758 0.000727 0.000002 61.218714 0.000116
0.204648 0.021462 0.000685 0.000002 0.000000 0.000000
0.205990 0.021251 0.000647 0.000002 56.416452 0.000094
0.207307 0.021668 0.000734 0.000002 15.146268 0.000028
0.208677 0.021636 0.000637 0.000002 158.631743 0.000267
0.209885 0.022158 0.000672 0.000002 32.765102 0.000054
0.211099 0.021636 0.000646 0.000002 23.821408 0.000042
0.212525 0.022222 0.000702 0.000002 0.000000 0.000000
0.213960 0.022259 0.000723 0.000002 0.000000 0.000000
0.215346 0.021903 0.000706 0.000002 3.356230 0.000007
0.216707 0.021473 0.000722 0.000002 60.705562 0.000116
0.218114 0.021522 0.000686 0.000002 0.000000 0.000000
0.219659 0.021651 0.000738 0.000002 25.406882 0.000047
0.221015 0.021454 0.000632 0.000002 0.207345 0.000000
0.222951 0.021468 0.000738 0.000002 106.159089 0.000215
0.224499 0.021431 0.000612 0.000001 0.000000 0.000000
0.000687 0.024688 0.000683 0.000002 0.000000 0.000000
0.002042 0.023811 0.000719 0.000002 0.000000 0.000000
0.003305 0.023096 0.000731 0.000002 0.000000 0.000000
0.004628 0.022399 0.000764 0.000002 0.000000 0.000000
0.005852 0.023076 0.000628 0.000002 0.000000 0.000000
0.007233 0.023250 0.000761 0.000002 0.000000 0.000000
0.009644 0.023457 0.000662 0.000002 11.065650 0.000022
0.010895 0.022884 0.000714 0.000002 0.000000 0.000000
0.013536 0.022893 0.000773 0.000002 0.000000 0.000000
0.014967 0.022886 0.000650 0.000002 0.000000 0.000000
0.015783 0.023838 0.000601 0.000002 0.000000 0.000000
0.017094 0.023713 0.000716 0.000002 0.000000 0.000000
0.018532 0.024012 0.000751 0.000002 0.000000 0.000000
0.019680 0.024796 0.000639 0.000002 0.000000 0.000000
0.020285 0.023518 0.000773 0.000002 0.000000 0.000000
0.021871 0.023557 0.000814 0.000002 0.000000 0.000000
0.024274 0.023293 0.000707 0.000002 0.000000 0.000000
0.025653 0.023663 0.000693 0.000002 0.000000 0.000000
0.027164 0.023871 0.000804 0.000002 0.000000 0.000000
0.028471 0.024531 0.000659 0.000002 0.000000 0.000000
0.029909 0.024656 0.000771 0.000002 0.000000 0.000000
0.031515 0.024918 0.000849 0.000002 0.000000 0.000000
0.032763 0.023812 0.000769 0.000002 0.000000 0.000000
0.034254 0.023564 0.000737 0.000002 0.000000 0.000000
0.035723 0.023321 0.000748 0.000002 0.000000 0.000000
0.037039 0.023956 0.000713 0.000002 0.000000 0.000000
0.038912 0.023576 0.000850 0.000002 0.000000 0.000000
0.040166 0.022758 0.000641 0.000002 0.603534 0.000001
0.041416 0.022946 0.000624 0.000002 0.000000 0.000000
0.042776 0.022752 0.000734 0.000002 0.819494 0.000002
0.044261 0.022462 0.000779 0.000002 0.000000 0.000000
0.045673 0.023193 0.000701 0.000002 0.000000 0.000000
0.047070 0.022533 0.000838 0.000002 0.000000 0.000000
0.048526 0.022710 0.000622 0.000002 0.000000 0.000000
0.050119 0.023038 0.000643 0.000002 0.000000 0.000000
0.051438 0.023121 0.000678 0.000002 0.000000 0.000000
0.052610 0.023691 0.000622 0.000002 1.205739 0.000002
0.054079 0.023570 0.000680 0.000002 0.000000 0.000000
0.055463 0.023471 0.000704 0.000002 0.000000 0.000000
0.056975 0.023397 0.000791 0.000002 0.000000 0.000000
0.058400 0.023207 0.000633 0.000002 0.000000 0.000000
0.059755 0.023255 0.000718 0.000002 0.000000 0.000000
0.061134 0.023240 0.000660 0.000002 0.000000 0.000000
0.062398 0.023499 0.000630 0.000002 0.000000 0.000000
0.063851 0.023335 0.000686 0.000002 0.000000 0.000000
0.065686 0.022947 0.000732 0.000002 0.000000 0.000000
0.067046 0.023078 0.000572 0.000002 0.000000 0.000000
0.068331 0.023495 0.000703 0.000002 0.000000 0.000000
0.070269 0.023354 0.000597 0.000002 0.000000 0.000000
0.071610 0.023549 0.000754 0.000002 0.000000 0.000000
0.072711 0.022717 0.000626 0.000002 0.000000 0.000000
0.073761 0.023322 0.000587 0.000002 0.000000 0.000000
0.074937 0.022879 0.000669 0.000002 0.000000 0.000000
0.076178 0.023476 0.000707 0.000002 1.655650 0.000003
0.077611 0.023966 0.000808 0.000002 0.000000 0.000000
0.079040 0.023334 0.000703 0.000002 0.000000 0.000000
0.080267 0.024178 0.000780 0.000002 5.482195 0.000010
0.081742 0.023859 0.000730 0.000002 0.000000 0.000000
0.083541 0.023461 0.000854 0.000002 0.000000 0.000000
0.085014 0.022556 0.000774 0.000002 0.000000 0.000000
0.086577 0.022708 0.000797 0.000002 0.000000 0.000000
0.088038 0.023056 0.000657 0.000002 0.000000 0.000000
0.089085 0.023883 0.000677 0.000002 0.000000 0.000000
0.090320 0.023146 0.000761 0.000002 0.000000 0.000000
0.091636 0.023110 0.000547 0.000002 0.000000 0.000000
0.093252 0.023583 0.000761 0.000002 0.000000 0.000000
0.094612 0.023581 0.000598 0.000002 0.000000 0.000000
0.096359 0.023303 0.000624 0.000002 0.000000 0.000000
0.097745 0.023372 0.000761 0.000002 0.000000 0.000000
0.099224 0.023297 0.000719 0.000002 0.000000 0.000000
0.100696 0.023316 0.000632 0.000002 0.000000 0.000000
0.102016 0.023298 0.000674 0.000002 0.000000 0.000000
0.103317 0.023484 0.000635 0.000002 0.000000 0.000000
0.104739 0.023656 0.000797 0.000002 0.000000 0.000000
0.106653 0.023588 0.000640 0.000002 0.000000 0.000000
0.107936 0.023440 0.000650 0.000002 0.000000 0.000000
0.109277 0.023202 0.000712 0.000002 0.000000 0.000000
0.110630 0.023329 0.000644 0.000002 0.000000 0.000000
0.111762 0.023943 0.000642 0.000002 0.000000 0.000000
0.113185 0.023629 0.000815 0.000002 0.000000 0.000000
0.114383 0.022597 0.000763 0.000002 0.000000 0.000000
0.115453 0.023565 0.000677 0.000002 0.000000 0.000000
0.116922 0.023526 0.000792 0.000002 0.000000 0.000000
0.118374 0.023629 0.000662 0.000002 0.000000 0.000000
0.119721 0.023645 0.000684 0.000002 0.000000 0.000000
0.121077 0.023692 0.000662 0.000002 0.000000 0.000000
0.123103 0.023792 0.000815 0.000002 0.000000 0.000000
0.124679 0.024581 0.000711 0.000002 0.000000 0.000000
0.126054 0.024631 0.000665 0.000002 0.000000 0.000000
0.127262 0.025098 0.000627 0.000002 0.000000 0.000000
0.128487 0.024712 0.000656 0.000002 0.000000 0.000000
0.129855 0.024409 0.000744 0.000002 0.000000 0.000000
0.131522 0.023781 0.000680 0.000002 0.000000 0.000000
0.132880 0.023416 0.000725 0.000002 0.000000 0.000000
0.134854 0.023206 0.000747 0.000002 0.000000 0.000000
0.136300 0.022959 0.000637 0.000002 0.000000 0.000000
0.137609 0.022654 0.000678 0.000002 0.000000 0.000000
0.138808 0.023783 0.000816 0.000002 0.000000 0.000000
0.140616 0.022859 0.000609 0.000002 0.000000 0.000000
0.141838 0.023655 0.000849 0.000002 0.000000 0.000000
0.143129 0.022450 0.000769 0.000002 0.000000 0.000000
0.144554 0.022832 0.000705 0.000002 0.000000 0.000000
0.145917 0.023034 0.000671 0.000002 0.000000 0.000000
0.147328 0.023211 0.000651 0.000002 0.000000 0.000000
0.148717 0.023597 0.000789 0.000002 0.000000 0.000000
0.150229 0.023425 0.000730 0.000002 0.000000 0.000000
0.151769 0.023369 0.000810 0.000002 0.000000 0.000000
0.153144 0.022950 0.000624 0.000002 0.000000 0.000000
0.154457 0.023044 0.000692 0.000002 0.507425 0.000001
0.155871 0.022879 0.000731 0.000002 0.000000 0.000000
0.157346 0.022752 0.000749 0.000002 0.000000 0.000000
0.158724 0.022767 0.000629 0.000002 0.000000 0.000000
0.160307 0.022640 0.000691 0.000002 0.452046 0.000001
0.161654 0.022860 0.000673 0.000002 0.000000 0.000000
0.162405 0.023964 0.000654 0.000002 0.000000 0.000000
0.163814 0.024017 0.000688 0.000002 0.000000 0.000000
0.165299 0.024063 0.000795 0.000002 0.000000 0.000000
0.166820 0.024065 0.000725 0.000002 0.000000 0.000000
0.168198 0.023998 0.000655 0.000002 0.000000 0.000000
0.170111 0.024013 0.000741 0.000002 0.000000 0.000000
0.172390 0.024310 0.000711 0.000002 0.000000 0.000000
0.172677 0.023016 0.000605 0.000002 0.000000 0.000000
0.173942 0.023119 0.000659 0.000002 0.000000 0.000000
0.175316 0.023321 0.000727 0.000002 0.000000 0.000000
0.176585 0.024027 0.000722 0.000002 0.000000 0.000000
0.177779 0.023610 0.000542 0.000002 0.000000 0.000000
0.179058 0.023563 0.000737 0.000002 0.000000 0.000000
0.180497 0.023348 0.000716 0.000002 0.000000 0.000000
0.182269 0.023250 0.000713 0.000002 0.000000 0.000000
0.183691 0.022525 0.000793 0.000002 0.000000 0.000000
0.185063 0.022693 0.000588 0.000002 0.000000 0.000000
0.186140 0.023515 0.000766 0.000002 0.000000 0.000000
0.187670 0.023549 0.000763 0.000002 200.466139 0.000443
0.188968 0.022840 0.000671 0.000002 83.538792 0.000162
0.190513 0.023211 0.000766 0.000002 12.059650 0.000025
0.191970 0.024013 0.000753 0.000002 0.000000 0.000000
0.193424 0.023635 0.000676 0.000002 0.000000 0.000000
0.194979 0.023434 0.000759 0.000002 104.103466 0.000197
0.196264 0.023048 0.000583 0.000002 1.135793 0.000002
0.197599 0.023175 0.000758 0.000002 19.294041 0.000033
0.199093 0.022936 0.000755 0.000002 0.000000 0.000000
0.200197 0.023692 0.000583 0.000002 0.000000 0.000000
0.201415 0.023401 0.000667 0.000002 0.000000 0.000000
0.202728 0.023141 0.000670 0.000002 10.499382 0.000019
0.204203 0.022971 0.000815 0.000002 48.486085 0.000102
0.205524 0.022424 0.000615 0.000002 0.000000 0.000000
0.206703 0.022937 0.000671 0.000002 0.000000 0.000000
0.208166 0.022971 0.000792 0.000002 194.180855 0.000370
0.209501 0.023368 0.000598 0.000002 16.552474 0.000027
0.211032 0.023079 0.000798 0.000002 5.749269 0.000011
0.212510 0.023520 0.000593 0.000002 0.000000 0.000000
0.213759 0.023630 0.000660 0.000002 0.000000 0.000000
0.215221 0.023420 0.000816 0.000002 0.000000 0.000000
0.217309 0.022755 0.000695 0.000002 91.980060 0.000180
0.218737 0.022793 0.000729 0.000002 0.000000 0.000000
0.220121 0.022975 0.000664 0.000002 0.000000 0.000000
0.221895 0.022563 0.000783 0.000002 11.585426 0.000025
0.223781 0.022700 0.000748 0.000002 0.000000 0.000000
0.000716 0.026095 0.000716 0.000002 0.000000 0.000000
0.001985 0.025261 0.000727 0.000002 0.000000 0.000000
0.003318 0.024571 0.000743 0.000002 0.000000 0.000000
0.004747 0.023897 0.000736 0.000002 0.000000 0.000000
0.006254 0.024447 0.000783 0.000002 0.000000 0.000000
0.007842 0.024671 0.000785 0.000002 0.000000 0.000000
0.009256 0.024689 0.000629 0.000002 0.000000 0.000000
0.010740 0.024331 0.000739 0.000002 0.000000 0.000000
0.011976 0.023728 0.000634 0.000002 0.000000 0.000000
0.013135 0.024241 0.000633 0.000002 0.000000 0.000000
0.014432 0.024094 0.000672 0.000002 0.000000 0.000000
0.015413 0.025155 0.000766 0.000002 0.000000 0.000000
0.016992 0.025203 0.000771 0.000002 0.000000 0.000000
0.018488 0.025520 0.000755 0.000002 0.000000 0.000000
0.021047 0.024866 0.000727 0.000002 0.000000 0.000000
0.022329 0.025077 0.000571 0.000002 0.000000 0.000000
0.023221 0.024199 0.000680 0.000002 0.000000 0.000000
0.024645 0.024638 0.000681 0.000002 0.000000 0.000000
0.025962 0.025012 0.000686 0.000002 0.000000 0.000000
0.027361 0.025432 0.000768 0.000002 30.019738 0.000059
0.028979 0.025781 0.000684 0.000002 0.000000 0.000000
0.030418 0.026138 0.000792 0.000002 0.000000 0.000000
0.031761 0.026311 0.000562 0.000002 0.000000 0.000000
0.033045 0.025281 0.000721 0.000002 0.904888 0.000002
0.034521 0.024914 0.000635 0.000002 0.000000 0.000000
0.035867 0.024778 0.000715 0.000002 0.000000 0.000000
0.038096 0.024915 0.000714 0.000002 0.000000 0.000000
0.039484 0.025110 0.000687 0.000002 0.000000 0.000000
0.040356 0.024060 0.000674 0.000002 0.000000 0.000000
0.041674 0.024203 0.000652 0.000002 0.000000 0.000000
0.043003 0.024150 0.000677 0.000002 0.000000 0.000000
0.044437 0.023997 0.000765 0.000002 0.000000 0.000000
0.045667 0.024466 0.000551 0.000001 0.000000 0.000000
0.046761 0.023985 0.000643 0.000002 0.000000 0.000000
0.048035 0.023869 0.000636 0.000002 0.000000 0.000000
0.049346 0.024141 0.000702 0.000002 0.000000 0.000000
0.050784 0.024400 0.000757 0.000002 0.000000 0.000000
0.052082 0.024791 0.000598 0.000002 0.000000 0.000000
0.053385 0.024763 0.000699 0.000002 0.000000 0.000000
0.054763 0.024745 0.000678 0.000002 0.000000 0.000000
0.056197 0.024735 0.000754 0.000002 0.000000 0.000000
0.057704 0.024675 0.000677 0.000002 0.000000 0.000000
0.059093 0.024536 0.000718 0.000002 0.000000 0.000000
0.060522 0.024470 0.000710 0.000002 0.000000 0.000000
0.061858 0.024643 0.000634 0.000002 0.000000 0.000000
0.063209 0.024589 0.000717 0.000002 0.000000 0.000000
0.064961 0.024217 0.000728 0.000002 12.208716 0.000023
0.066409 0.024203 0.000716 0.000002 0.000000 0.000000
0.067701 0.024604 0.000567 0.000002 0.000000 0.000000
0.069013 0.024648 0.000632 0.000002 0.000000 0.000000
0.070400 0.024698 0.000748 0.000002 0.000000 0.000000
0.071756 0.024914 0.000618 0.000002 0.000000 0.000000
0.072873 0.024236 0.000682 0.000002 0.000000 0.000000
0.074998 0.024249 0.000701 0.000002 0.000000 0.000000
0.076319 0.024936 0.000757 0.000002 0.000000 0.000000
0.077707 0.025557 0.000764 0.000002 0.000000 0.000000
0.078902 0.024728 0.000691 0.000002 0.000000 0.000000
0.079967 0.025650 0.000717 0.000002 0.000000 0.000000
0.081307 0.025199 0.000678 0.000002 0.000000 0.000000
0.082779 0.024988 0.000803 0.000002 0.000000 0.000000
0.084281 0.024837 0.000706 0.000002 0.000000 0.000000
0.085280 0.023940 0.000635 0.000002 0.000000 0.000000
0.086580 0.024198 0.000689 0.000002 0.000000 0.000000
0.087872 0.024310 0.000606 0.000002 0.000000 0.000000
0.090293 0.024674 0.000764 0.000002 0.000000 0.000000
0.091908 0.024494 0.000860 0.000002 0.000000 0.000000
0.093275 0.024891 0.000547 0.000001 0.058002 0.000000
0.094411 0.024762 0.000597 0.000001 0.000000 0.000000
0.095612 0.024361 0.000667 0.000002 0.000000 0.000000
0.097032 0.024757 0.000796 0.000002 0.031364 0.000000
0.098591 0.024648 0.000767 0.000002 8.773071 0.000017
0.100023 0.024432 0.000669 0.000002 0.000000 0.000000
0.101386 0.024517 0.000697 0.000002 0.990891 0.000002
0.102823 0.024801 0.000768 0.000002 -0.004811 -0.000000
0.104271 0.025095 0.000710 0.000002 0.000000 0.000000
0.105750 0.024867 0.000771 0.000002 0.000000 0.000000
0.107250 0.024816 0.000720 0.000002 0.000000 0.000000
0.108780 0.024650 0.000817 0.000002 0.000000 0.000000
0.110268 0.024600 0.000672 0.000002 0.000000 0.000000
0.111473 0.025269 0.000706 0.000002 0.000000 0.000000
0.112836 0.025074 0.000670 0.000002 0.000000 0.000000
0.114448 0.024680 0.000823 0.000002 0.000000 0.000000
0.116103 0.024903 0.000805 0.000002 0.000000 0.000000
0.117628 0.024868 0.000720 0.000002 0.000000 0.000000
0.119014 0.024801 0.000666 0.000002 0.000000 0.000000
0.120381 0.024865 0.000700 0.000002 0.000000 0.000000
0.121913 0.024896 0.000799 0.000002 0.000000 0.000000
0.123416 0.025347 0.000766 0.000002 0.000000 0.000000
0.125375 0.025954 0.000815 0.000002 0.000000 0.000000
0.126837 0.026356 0.000700 0.000002 0.000000 0.000000
0.128197 0.026040 0.000694 0.000002 0.000000 0.000000
0.129916 0.025894 0.000737 0.000002 0.000000 0.000000
0.131107 0.025067 0.000668 0.000002 0.000000 0.000000
0.132490 0.024837 0.000717 0.000002 0.000000 0.000000
0.133972 0.024487 0.000803 0.000002 0.000000 0.000000
0.135681 0.024462 0.000753 0.000002 0.000000 0.000000
0.137210 0.024090 0.000810 0.000002 0.000000 0.000000
0.139482 0.025202 0.000752 0.000002 0.000000 0.000000
0.140235 0.024039 0.000630 0.000002 0.000000 0.000000
0.141130 0.025151 0.000795 0.000002 0.000000 0.000000
0.143511 0.024028 0.000850 0.000002 0.000000 0.000000
0.145089 0.024162 0.000725 0.000002 0.000000 0.000000
0.146566 0.024425 0.000774 0.000002 0.000000 0.000000
0.147974 0.024905 0.000713 0.000002 0.000000 0.000000
0.149483 0.025047 0.000803 0.000002 0.000000 0.000000
0.150971 0.024686 0.000729 0.000002 0.000000 0.000000
0.152403 0.024744 0.000703 0.000002 0.000000 0.000000
0.153812 0.024348 0.000759 0.000002 0.000000 0.000000
0.155268 0.024168 0.000691 0.000002 0.000000 0.000000
0.156703 0.024052 0.000700 0.000002 0.000000 0.000000
0.158100 0.023989 0.000697 0.000002 0.000000 0.000000
0.159555 0.023886 0.000761 0.000002 0.000000 0.000000
0.160953 0.023977 0.000638 0.000002 0.000000 0.000000
0.161694 0.025168 0.000739 0.000002 0.000000 0.000000
0.163078 0.025129 0.000642 0.000002 0.000000 0.000000
0.164492 0.025442 0.000796 0.000002 0.000000 0.000000
0.166035 0.025368 0.000701 0.000002 0.000000 0.000000
0.167642 0.025187 0.000655 0.000002 0.000000 0.000000
0.169069 0.025118 0.000763 0.000002 0.000000 0.000000
0.171144 0.025134 0.000778 0.000002 0.000000 0.000000
0.172761 0.025683 0.000706 0.000002 0.000000 0.000000
0.173805 0.024485 0.000711 0.000002 0.000000 0.000000
0.175262 0.024833 0.000785 0.000002 0.000000 0.000000
0.176681 0.025556 0.000805 0.000002 0.000000 0.000000
0.178207 0.024940 0.000841 0.000002 0.000000 0.000000
0.179963 0.024759 0.000756 0.000002 0.000000 0.000000
0.181451 0.024474 0.000759 0.000002 0.000000 0.000000
0.182791 0.024489 0.000580 0.000002 0.000000 0.000000
0.184044 0.024018 0.000737 0.000002 0.000000 0.000000
0.185279 0.024630 0.000640 0.000002 0.000000 0.000000
0.186613 0.024881 0.000679 0.000002 0.000000 0.000000
0.188104 0.025064 0.000813 0.000002 125.453847 0.000252
0.189301 0.024158 0.000689 0.000002 14.965949 0.000029
0.190628 0.024730 0.000757 0.000002 12.498092 0.000023
0.191807 0.025343 0.000572 0.000002 25.123311 0.000040
0.193083 0.025021 0.000744 0.000002 1.140781 0.000002
0.194502 0.024805 0.000692 0.000002 68.814458 0.000137
0.195946 0.024546 0.000714 0.000002 0.000000 0.000000
0.197242 0.024467 0.000581 0.000002 0.000000 0.000000
0.198514 0.024272 0.000670 0.000002 0.000000 0.000000
0.199674 0.024841 0.000622 0.000002 0.000000 0.000000
0.200993 0.024707 0.000704 0.000002 2.973124 0.000005
0.202295 0.024376 0.000639 0.000002 -0.322245 -0.000001
0.203701 0.024474 0.000770 0.000002 0.000000 0.000000
0.205570 0.023982 0.000847 0.000002 0.000000 0.000000
0.207253 0.024229 0.000728 0.000002 0.000000 0.000000
0.208674 0.024367 0.000693 0.000002 248.699917 0.000452
0.210266 0.024362 0.000656 0.000002 0.000000 0.000000
0.211620 0.024451 0.000695 0.000002 8.459657 0.000015
0.212978 0.024736 0.000694 0.000002 4.622312 0.000008
0.214449 0.024912 0.000772 0.000002 0.064812 0.000000
0.215832 0.024798 0.000615 0.000002 0.000000 0.000000
0.216585 0.023834 0.000605 0.000002 0.000000 0.000000
0.217952 0.024088 0.000785 0.000002 308.776219 0.000595
0.219329 0.023991 0.000590 0.000002 0.000000 0.000000
0.221172 0.023896 0.000733 0.000002 0.000000 0.000000
0.222696 0.023857 0.000737 0.000002 0.000000 0.000000
0.224122 0.024325 0.000715 0.000002 0.000000 0.000000
0.000604 0.027411 0.000598 0.000002 0.000000 0.000000
0.001998 0.026714 0.000707 0.000002 0.000000 0.000000
0.003320 0.026077 0.000760 0.000002 178.271974 0.000345
0.004567 0.025319 0.000696 0.000002 0.000000 0.000000
0.005822 0.025815 0.000652 0.000002 0.000000 0.000000
0.007210 0.026047 0.000728 0.000002 0.000000 0.000000
0.008709 0.025934 0.000729 0.000002 0.000000 0.000000
0.010184 0.025724 0.000759 0.000002 0.000000 0.000000
0.012036 0.025166 0.000801 0.000002 0.000000 0.000000
0.013892 0.025277 0.000627 0.000002 0.000000 0.000000
0.014627 0.026475 0.000769 0.000002 23.319434 0.000047
0.016155 0.026482 0.000752 0.000002 0.000000 0.000000
0.017582 0.026647 0.000685 0.000002 0.000000 0.000000
0.018818 0.026793 0.000558 0.000002 0.000000 0.000000
0.020092 0.026219 0.000840 0.000002 0.000000 0.000000
0.021654 0.026184 0.000720 0.000002 0.000000 0.000000
0.023561 0.025601 0.000761 0.000002 0.000000 0.000000
0.024970 0.025982 0.000698 0.000002 0.000000 0.000000
0.026282 0.026394 0.000677 0.000002 0.000000 0.000000
0.027986 0.026813 0.000745 0.000002 0.000000 0.000000
0.029378 0.027214 0.000704 0.000002 0.000000 0.000000
0.030941 0.027539 0.000699 0.000002 0.000000 0.000000
0.032885 0.026595 0.000598 0.000001 0.000000 0.000000
0.034138 0.026208 0.000712 0.000002 0.000000 0.000000
0.035496 0.026099 0.000650 0.000002 0.000000 0.000000
0.036922 0.025844 0.000782 0.000002 0.000000 0.000000
0.038349 0.026341 0.000728 0.000002 0.000000 0.000000
0.039847 0.026537 0.000778 0.000002 0.000000 0.000000
0.040919 0.025414 0.000771 0.000002 0.000000 0.000000
0.042358 0.025337 0.000667 0.000002 0.000000 0.000000
0.043765 0.025348 0.000737 0.000002 0.000000 0.000000
0.045135 0.025564 0.000650 0.000002 0.000000 0.000000
0.046638 0.025489 0.000854 0.000002 0.368078 0.000001
0.048340 0.025337 0.000855 0.000002 0.000000 0.000000
0.049850 0.025471 0.000661 0.000002 0.000000 0.000000
0.051269 0.025714 0.000632 0.000002 0.000000 0.000000
0.052655 0.025917 0.000660 0.000002 15.547779 0.000025
0.054098 0.026074 0.000791 0.000002 0.000000 0.000000
0.055677 0.026396 0.000819 0.000002 1.717285 0.000004
0.057066 0.025862 0.000669 0.000002 0.000000 0.000000
0.058474 0.025863 0.000739 0.000002 0.000000 0.000000
0.059899 0.025727 0.000692 0.000002 0.000000 0.000000
0.061243 0.025773 0.000652 0.000002 0.000000 0.000000
0.062532 0.025761 0.000635 0.000002 0.000000 0.000000
0.064310 0.025499 0.000708 0.000002 0.000000 0.000000
0.065616 0.025376 0.000604 0.000002 0.000000 0.000000
0.066863 0.025490 0.000648 0.000002 0.000000 0.000000
0.068279 0.025916 0.000830 0.000002 0.051531 0.000000
0.069785 0.025988 0.000678 0.000002 0.000000 0.000000
0.071127 0.026033 0.000665 0.000002 0.000000 0.000000
0.072836 0.025588 0.000654 0.000002 0.000000 0.000000
0.073919 0.024968 0.000593 0.000002 0.000000 0.000000
0.075032 0.025682 0.000727 0.000002 0.000000 0.000000
0.076508 0.026306 0.000623 0.000002 0.000000 0.000000
0.077643 0.027041 0.000715 0.000002 0.000000 0.000000
0.078832 0.026392 0.000637 0.000002 0.000000 0.000000
0.079880 0.026896 0.000527 0.000001 0.000000 0.000000
0.081045 0.026551 0.000688 0.000002 0.000000 0.000000
0.082434 0.026461 0.000704 0.000002 0.000000 0.000000
0.083763 0.026113 0.000670 0.000002 0.000000 0.000000
0.085648 0.025265 0.000725 0.000002 0.000000 0.000000
0.087174 0.025569 0.000798 0.000002 0.000000 0.000000
0.088717 0.025379 0.000753 0.000002 0.000000 0.000000
0.089961 0.026093 0.000682 0.000002 0.000000 0.000000
0.091356 0.026042 0.000714 0.000002 0.000000 0.000000
0.092577 0.025731 0.000545 0.000001 0.000000 0.000000
0.093845 0.026077 0.000749 0.000002 0.000000 0.000000
0.095289 0.025736 0.000712 0.000002 0.000000 0.000000
0.096624 0.026208 0.000705 0.000002 0.000000 0.000000
0.097998 0.026010 0.000682 0.000002 0.000000 0.000000
0.099368 0.025883 0.000692 0.000002 0.000000 0.000000
0.100612 0.025550 0.000594 0.000002 0.000000 0.000000
0.101873 0.025960 0.000731 0.000002 0.000000 0.000000
0.103258 0.026186 0.000673 0.000002 0.586332 0.000001
0.104662 0.026535 0.000774 0.000002 5.758413 0.000012
0.106598 0.026058 0.000681 0.000002 16.962393 0.000033
0.108060 0.026075 0.000773 0.000002 0.000000 0.000000
0.109655 0.026036 0.000820 0.000002 0.000000 0.000000
0.111048 0.026598 0.000682 0.000002 0.000000 0.000000
0.112360 0.026323 0.000658 0.000002 0.000000 0.000000
0.113817 0.026181 0.000805 0.000002 0.000000 0.000000
0.115429 0.026382 0.000819 0.000002 0.000000 0.000000
0.116962 0.026186 0.000726 0.000002 0.000000 0.000000
0.118369 0.026040 0.000661 0.000002 0.000000 0.000000
0.119617 0.025908 0.000587 0.000002 83.605125 0.000128
0.121006 0.026286 0.000847 0.000002 0.000000 0.000000
0.122552 0.026566 0.000724 0.000002 0.000000 0.000000
0.124032 0.026720 0.000730 0.000002 0.000000 0.000000
0.126074 0.027584 0.000739 0.000002 0.000000 0.000000
0.127766 0.027277 0.000598 0.000002 0.000000 0.000000
0.129122 0.027162 0.000759 0.000002 0.000000 0.000000
0.130722 0.026935 0.000576 0.000002 0.000000 0.000000
0.131968 0.026292 0.000823 0.000002 0.000000 0.000000
0.133473 0.025933 0.000724 0.000002 0.000000 0.000000
0.134883 0.025683 0.000699 0.000002 0.000000 0.000000
0.136699 0.025540 0.000726 0.000002 0.000000 0.000000
0.138068 0.025299 0.000660 0.000002 0.000000 0.000000
0.138885 0.026603 0.000759 0.000002 0.000000 0.000000
0.140303 0.026373 0.000677 0.000002 0.000000 0.000000
0.141677 0.026646 0.000724 0.000002 0.000000 0.000000
0.142702 0.025490 0.000813 0.000003 0.000000 0.000000
0.144310 0.025463 0.000790 0.000002 -0.144907 -0.000000
0.145709 0.025521 0.000611 0.000002 0.000000 0.000000
0.147005 0.026052 0.000787 0.000002 0.000000 0.000000
0.148519 0.026252 0.000734 0.000002 0.000000 0.000000
0.150940 0.026202 0.000778 0.000002 0.000000 0.000000
0.152235 0.026398 0.000531 0.000002 0.000000 0.000000
0.153399 0.025827 0.000765 0.000002 0.000000 0.000000
0.154741 0.025399 0.000643 0.000002 0.000000 0.000000
0.156094 0.025326 0.000712 0.000002 0.000000 0.000000
0.157511 0.025265 0.000706 0.000002 0.000000 0.000000
0.158957 0.025262 0.000738 0.000002 0.000000 0.000000
0.160320 0.025088 0.000636 0.000002 0.000000 0.000000
0.161257 0.026485 0.000637 0.000002 0.000000 0.000000
0.162628 0.026444 0.000733 0.000002 0.000000 0.000000
0.164045 0.026749 0.000581 0.000002 0.000000 0.000000
0.165429 0.026747 0.000797 0.000002 0.000000 0.000000
0.167018 0.026509 0.000800 0.000002 0.000000 0.000000
0.168459 0.026393 0.000641 0.000002 0.000000 0.000000
0.170089 0.026341 0.000816 0.000002 0.000000 0.000000
0.171628 0.026581 0.000737 0.000002 0.000000 0.000000
0.173400 0.027016 0.000730 0.000002 0.000000 0.000000
0.174112 0.025817 0.000649 0.000002 0.000000 0.000000
0.175373 0.026344 0.000716 0.000002 0.000000 0.000000
0.176573 0.027017 0.000657 0.000002 0.000000 0.000000
0.177837 0.026482 0.000673 0.000002 0.000000 0.000000
0.179302 0.026194 0.000818 0.000002 0.000000 0.000000
0.180838 0.025994 0.000731 0.000002 0.000000 0.000000
0.182285 0.025727 0.000740 0.000002 0.000000 0.000000
0.183794 0.025521 0.000782 0.000002 0.000000 0.000000
0.185688 0.025903 0.000684 0.000002 0.000000 0.000000
0.187076 0.026228 0.000740 0.000002 94.640171 0.000173
0.188477 0.026527 0.000692 0.000002 0.000000 0.000000
0.189486 0.025572 0.000660 0.000002 0.000000 0.000000
0.190782 0.026178 0.000698 0.000002 0.000000 0.000000
0.192136 0.026568 0.000696 0.000002 0.000000 0.000000
0.193603 0.026450 0.000773 0.000002 0.000000 0.000000
0.195408 0.025826 0.000673 0.000002 80.999643 0.000147
0.196780 0.025635 0.000657 0.000002 0.000000 0.000000
0.197947 0.025344 0.000543 0.000001 0.000000 0.000000
0.198971 0.025830 0.000590 0.000002 0.000000 0.000000
0.200421 0.026012 0.000710 0.000002 0.000000 0.000000
0.202028 0.025779 0.000782 0.000002 0.000000 0.000000
0.203438 0.025851 0.000630 0.000002 0.000000 0.000000
0.204821 0.025513 0.000757 0.000002 0.000000 0.000000
0.206332 0.025395 0.000752 0.000002 17.431707 0.000036
0.207831 0.025604 0.000762 0.000002 0.080621 0.000000
0.209324 0.025633 0.000731 0.000002 259.579934 0.000484
0.210819 0.025672 0.000765 0.000002 12.381412 0.000023
0.212200 0.025917 0.000633 0.000002 0.000000 0.000000
0.213453 0.025942 0.000602 0.000002 6.933792 0.000011
0.214627 0.026306 0.000628 0.000002 0.000000 0.000000
0.215855 0.026040 0.000625 0.000002 0.000000 0.000000
0.217175 0.025465 0.000796 0.000002 0.000000 0.000000
0.218790 0.025443 0.000809 0.000002 0.000000 0.000000
0.220292 0.025075 0.000737 0.000002 0.000000 0.000000
0.221954 0.025255 0.000834 0.000002 2.084167 0.000005
0.223453 0.025690 0.000727 0.000003 0.000000 0.000000
0.000614 0.028869 0.000611 0.000002 0.000000 0.000000
0.001877 0.028226 0.000807 0.000002 0.000000 0.000000
0.003493 0.027583 0.000756 0.000002 63.336495 0.000132
0.004623 0.026702 0.000677 0.000002 0.000000 0.000000
0.005883 0.027105 0.000637 0.000002 0.000000 0.000000
0.007081 0.027352 0.000583 0.000002 0.000000 0.000000
0.008300 0.027241 0.000641 0.000002 0.000000 0.000000
0.009614 0.027054 0.000686 0.000002 0.000000 0.000000
0.011436 0.026650 0.000796 0.000002 0.000000 0.000000
0.013037 0.026443 0.000817 0.000002 0.000000 0.000000
0.013860 0.027761 0.000728 0.000002 0.000000 0.000000
0.015404 0.027847 0.000803 0.000002 0.000000 0.000000
0.016849 0.027759 0.000644 0.000002 0.000000 0.000000
0.018204 0.027916 0.000717 0.000002 0.000000 0.000000
0.019621 0.027769 0.000703 0.000002 0.000000 0.000000
0.021025 0.027487 0.000724 0.000002 0.000000 0.000000
0.022610 0.027151 0.000637 0.000002 0.000000 0.000000
0.023991 0.027050 0.000745 0.000002 0.000000 0.000000
0.025378 0.027623 0.000753 0.000002 0.000000 0.000000
0.026890 0.027872 0.000777 0.000002 0.000000 0.000000
0.028372 0.028245 0.000737 0.000002 0.000000 0.000000
0.029943 0.028436 0.000640 0.000002 0.000000 0.000000
0.032346 0.027828 0.000736 0.000002 0.000000 0.000000
0.033742 0.027524 0.000659 0.000002 0.000000 0.000000
0.034953 0.027218 0.000585 0.000002 0.000000 0.000000
0.036171 0.027191 0.000631 0.000002 0.000000 0.000000
0.037441 0.027441 0.000662 0.000002 0.000000 0.000000
0.038795 0.027721 0.000719 0.000002 0.000000 0.000000
0.040253 0.028041 0.000774 0.000002 0.000000 0.000000
0.041389 0.026934 0.000807 0.000002 0.000000 0.000000
0.042825 0.026592 0.000669 0.000002 0.000000 0.000000
0.044326 0.026835 0.000850 0.000002 0.000000 0.000000
0.045975 0.027028 0.000808 0.000002 0.172269 0.000000
0.047559 0.026857 0.000786 0.000002 0.000000 0.000000
0.048948 0.026676 0.000614 0.000002 0.000000 0.000000
0.050362 0.026860 0.000812 0.000002 0.000000 0.000000
0.051835 0.026954 0.000662 0.000002 0.000000 0.000000
0.053156 0.027204 0.000680 0.000002 0.000000 0.000000
0.054623 0.027411 0.000640 0.000002 0.000000 0.000000
0.056354 0.027628 0.000587 0.000002 0.000000 0.000000
0.057669 0.027198 0.000796 0.000002 13.767240 0.000026
0.059198 0.027146 0.000734 0.000002 0.000000 0.000000
0.060575 0.026906 0.000664 0.000002 0.000000 0.000000
0.062012 0.027096 0.000784 0.000002 0.000000 0.000000
0.063535 0.026764 0.000774 0.000002 0.000000 0.000000
0.065133 0.026635 0.000694 0.000002 0.000000 0.000000
0.066581 0.026887 0.000775 0.000002 0.000000 0.000000
0.067854 0.027271 0.000555 0.000002 0.000000 0.000000
0.069114 0.027208 0.000706 0.000002 0.202891 0.000000
0.070432 0.027112 0.000615 0.000002 0.000000 0.000000
0.072268 0.026893 0.000763 0.000002 0.000000 0.000000
0.073835 0.026628 0.000785 0.000002 0.000000 0.000000
0.075355 0.027217 0.000842 0.000002 0.000000 0.000000
0.076651 0.028055 0.000700 0.000002 0.000000 0.000000
0.078024 0.028443 0.000726 0.000002 0.000000 0.000000
0.079271 0.027890 0.000638 0.000002 0.000000 0.000000
0.080622 0.027888 0.000711 0.000002 0.000000 0.000000
0.081922 0.027667 0.000602 0.000002 0.000000 0.000000
0.083444 0.027474 0.000719 0.000002 0.000000 0.000000
0.084834 0.026958 0.000693 0.000002 0.000000 0.000000
0.086120 0.026564 0.000651 0.000002 0.000000 0.000000
0.087280 0.027410 0.000782 0.000002 0.000000 0.000000
0.088750 0.026905 0.000771 0.000002 3.731628 0.000008
0.090032 0.027364 0.000590 0.000001 0.070448 0.000000
0.091259 0.027396 0.000637 0.000002 0.000000 0.000000
0.092629 0.027056 0.000774 0.000002 0.000000 0.000000
0.094899 0.027090 0.000689 0.000002 0.000000 0.000000
0.096190 0.027514 0.000670 0.000002 0.000000 0.000000
0.097512 0.027333 0.000664 0.000002 0.000000 0.000000
0.098779 0.027067 0.000627 0.000002 0.000000 0.000000
0.100574 0.026924 0.000772 0.000002 0.000000 0.000000
0.101210 0.028334 0.000774 0.000002 0.000000 0.000000
0.102211 0.027310 0.000657 0.000002 0.000000 0.000000
0.103562 0.027546 0.000714 0.000002 0.000000 0.000000
0.105918 0.027199 0.000648 0.000002 0.000000 0.000000
0.107319 0.027426 0.000768 0.000002 0.000000 0.000000
0.108734 0.027336 0.000648 0.000002 0.000000 0.000000
0.110110 0.027733 0.000784 0.000002 0.000000 0.000000
0.111664 0.027868 0.000726 0.000002 0.000000 0.000000
0.113142 0.027611 0.000773 0.000002 0.000000 0.000000
0.114676 0.027803 0.000766 0.000002 0.000000 0.000000
0.116257 0.027790 0.000813 0.000002 0.000000 0.000000
0.117872 0.027457 0.000834 0.000002 0.000000 0.000000
0.119244 0.027034 0.000599 0.000002 0.000000 0.000000
0.120376 0.027728 0.000724 0.000002 -0.007261 -0.000000
0.121768 0.027719 0.000668 0.000002 0.000000 0.000000
0.123160 0.027878 0.000717 0.000002 0.000000 0.000000
0.124667 0.028292 0.000835 0.000002 0.000000 0.000000
0.127183 0.028311 0.000584 0.000002 0.000000 0.000000
0.128506 0.028550 0.000747 0.000002 0.000000 0.000000
0.130225 0.028104 0.000691 0.000002 0.000000 0.000000
0.131704 0.027900 0.000798 0.000002 0.000000 0.000000
0.133074 0.027322 0.000684 0.000002 0.000000 0.000000
0.134385 0.026991 0.000665 0.000002 0.000000 0.000000
0.135863 0.026846 0.000819 0.000002 0.000000 0.000000
0.137412 0.026814 0.000729 0.000002 0.000000 0.000000
0.138275 0.027975 0.000709 0.000002 0.000000 0.000000
0.139854 0.027653 0.000669 0.000002 5.309117 0.000010
0.141153 0.027852 0.000591 0.000002 0.000000 0.000000
0.142473 0.027830 0.000701 0.000002 0.000000 0.000000
0.143765 0.026998 0.000833 0.000002 0.000000 0.000000
0.145123 0.026570 0.000581 0.000001 0.000000 0.000000
0.146148 0.027154 0.000597 0.000001 0.000000 0.000000
0.147322 0.027415 0.000602 0.000002 0.000000 0.000000
0.148525 0.027606 0.000616 0.000002 0.231629 0.000000
0.149871 0.027314 0.000761 0.000002 0.000000 0.000000
0.151531 0.027442 0.000593 0.000002 0.000000 0.000000
0.152794 0.027382 0.000600 0.000001 0.000000 0.000000
0.154050 0.027119 0.000680 0.000002 0.000000 0.000000
0.155424 0.026651 0.000772 0.000002 0.000000 0.000000
0.156865 0.026510 0.000673 0.000002 0.000000 0.000000
0.158341 0.026689 0.000811 0.000002 0.000000 0.000000
0.159915 0.026360 0.000678 0.000002 0.000000 0.000000
0.160505 0.027655 0.000746 0.000002 0.000000 0.000000
0.161915 0.027643 0.000661 0.000002 0.000000 0.000000
0.163240 0.027677 0.000640 0.000002 0.000000 0.000000
0.164525 0.027877 0.000645 0.000002 0.000000 0.000000
0.166369 0.027803 0.000614 0.000002 0.000000 0.000000
0.167702 0.027854 0.000701 0.000002 0.442185 0.000001
0.169152 0.027623 0.000767 0.000002 0.000000 0.000000
0.170690 0.027808 0.000745 0.000002 0.000000 0.000000
0.172229 0.027985 0.000780 0.000002 0.000000 0.000000
0.173561 0.028353 0.000600 0.000002 0.000000 0.000000
0.174790 0.027724 0.000778 0.000002 0.000000 0.000000
0.176148 0.028303 0.000686 0.000002 0.000000 0.000000
0.177667 0.027897 0.000747 0.000002 0.000000 0.000000
0.178976 0.027590 0.000598 0.000002 0.000000 0.000000
0.180330 0.027402 0.000765 0.000002 0.000000 0.000000
0.181778 0.027087 0.000710 0.000002 0.000000 0.000000
0.183091 0.026827 0.000621 0.000002 0.000000 0.000000
0.184567 0.026969 0.000859 0.000002 0.000000 0.000000
0.186107 0.027317 0.000718 0.000002 65.138326 0.000119
0.187571 0.027570 0.000690 0.000002 0.000000 0.000000
0.188818 0.028164 0.000690 0.000002 0.000000 0.000000
0.189742 0.027118 0.000703 0.000002 0.000000 0.000000
0.191127 0.027563 0.000721 0.000002 28.033271 0.000051
0.192560 0.027887 0.000690 0.000002 7.062620 0.000013
0.193939 0.028079 0.000702 0.000002 0.000000 0.000000
0.194881 0.027085 0.000653 0.000002 37.880526 0.000067
0.196278 0.026949 0.000748 0.000002 73.610373 0.000141
0.197783 0.026666 0.000781 0.000002 0.000000 0.000000
0.199392 0.027203 0.000846 0.000002 0.000000 0.000000
0.201335 0.027059 0.000673 0.000002 0.000000 0.000000
0.202774 0.027089 0.000717 0.000002 0.000000 0.000000
0.204307 0.026975 0.000787 0.000002 0.000000 0.000000
0.205764 0.026721 0.000690 0.000002 0.000000 0.000000
0.207147 0.026900 0.000700 0.000002 0.000000 0.000000
0.208557 0.026871 0.000698 0.000002 0.000000 0.000000
0.210009 0.026814 0.000635 0.000002 317.831793 0.000536
0.211390 0.027093 0.000767 0.000002 61.235207 0.000114
0.212853 0.027094 0.000697 0.000002 3.640644 0.000007
0.214107 0.027419 0.000598 0.000002 26.722511 0.000042
0.215391 0.027387 0.000686 0.000002 22.907492 0.000039
0.216819 0.027049 0.000765 0.000002 0.000000 0.000000
0.218288 0.026845 0.000675 0.000002 0.000000 0.000000
0.219572 0.026657 0.000620 0.000002 0.000000 0.000000
0.220782 0.026345 0.000624 0.000002 0.000000 0.000000
0.222082 0.027216 0.000844 0.000002 0.000000 0.000000
0.223689 0.027161 0.000763 0.000002 0.000000 0.000000
0.000716 0.030212 0.000716 0.000002 0.000000 0.000000
0.003198 0.028973 0.000665 0.000002 32.517608 0.000059
0.004500 0.029428 0.000692 0.000002 32.874734 0.000060
0.004933 0.028081 0.000724 0.000002 0.000000 0.000000
0.006312 0.028334 0.000664 0.000002 0.000000 0.000000
0.007832 0.028589 0.000776 0.000002 0.000000 0.000000
0.009267 0.028409 0.000670 0.000002 0.000000 0.000000
0.010695 0.028027 0.000764 0.000002 0.000000 0.000000
0.012390 0.027859 0.000738 0.000002 0.000000 0.000000
0.013201 0.029111 0.000751 0.000002 0.000000 0.000000
0.014617 0.029089 0.000666 0.000002 0.000000 0.000000
0.016155 0.028973 0.000545 0.000002 0.000000 0.000000
0.017461 0.029286 0.000784 0.000002 0.000000 0.000000
0.019058 0.029139 0.000769 0.000002 0.000000 0.000000
0.020467 0.028850 0.000667 0.000002 0.000000 0.000000
0.021827 0.028667 0.000701 0.000002 0.000000 0.000000
0.023279 0.028399 0.000775 0.000002 0.000000 0.000000
0.024638 0.028809 0.000644 0.000002 0.000000 0.000000
0.025956 0.029002 0.000686 0.000002 0.000000 0.000000
0.027353 0.029324 0.000746 0.000002 0.000000 0.000000
0.028729 0.029583 0.000646 0.000002 0.000000 0.000000
0.030080 0.029794 0.000721 0.000002 0.731418 0.000001
0.031390 0.029031 0.000796 0.000002 0.000000 0.000000
0.033386 0.028878 0.000739 0.000002 0.000000 0.000000
0.034937 0.028611 0.000796 0.000002 0.000000 0.000000
0.036413 0.028486 0.000681 0.000002 0.000000 0.000000
0.037764 0.028772 0.000695 0.000002 0.425969 0.000001
0.039183 0.029131 0.000741 0.000002 0.000000 0.000000
0.040473 0.029374 0.000569 0.000002 7.789007 0.000013
0.041708 0.028461 0.000737 0.000002 0.000000 0.000000
0.043177 0.028018 0.000795 0.000002 0.000000 0.000000
0.044983 0.028225 0.000685 0.000002 0.000000 0.000000
0.046343 0.028490 0.000698 0.000002 0.000000 0.000000
0.047654 0.028271 0.000629 0.000002 0.000000 0.000000
0.048891 0.027942 0.000649 0.000002 0.000000 0.000000
0.050199 0.028407 0.000739 0.000002 0.000000 0.000000
0.052259 0.028240 0.000687 0.000002 0.000000 0.000000
0.053747 0.028616 0.000848 0.000002 0.000000 0.000000
0.055423 0.028698 0.000829 0.000002 92.066183 0.000195
0.057179 0.028574 0.000665 0.000002 0.000000 0.000000
0.058524 0.028408 0.000686 0.000002 39.744597 0.000069
0.060172 0.028301 0.000771 0.000002 2.145713 0.000004
0.061650 0.028572 0.000731 0.000002 0.000000 0.000000
0.063010 0.028103 0.000625 0.000002 0.000000 0.000000
0.064229 0.027950 0.000600 0.000002 16.823935 0.000028
0.065561 0.027998 0.000732 0.000002 0.000000 0.000000
0.067063 0.028435 0.000833 0.000002 0.000000 0.000000
0.068426 0.028250 0.000542 0.000002 0.000000 0.000000
0.069930 0.028389 0.000722 0.000002 0.000000 0.000000
0.071212 0.028051 0.000601 0.000002 0.000000 0.000000
0.072534 0.028416 0.000768 0.000002 0.000000 0.000000
0.074057 0.028177 0.000771 0.000002 0.000000 0.000000
0.075427 0.028814 0.000739 0.000002 0.000000 0.000000
0.076961 0.029477 0.000755 0.000002 0.000000 0.000000
0.078403 0.029852 0.000732 0.000002 0.000000 0.000000
0.079784 0.029222 0.000784 0.000002 0.000000 0.000000
0.081324 0.029176 0.000754 0.000002 0.000000 0.000000
0.082726 0.028724 0.000719 0.000002 0.000000 0.000000
0.084588 0.028398 0.000748 0.000002 0.000000 0.000000
0.085865 0.027838 0.000643 0.000002 0.000000 0.000000
0.086602 0.029001 0.000732 0.000002 0.000000 0.000000
0.088010 0.028714 0.000703 0.000002 0.000000 0.000000
0.089275 0.028314 0.000623 0.000002 0.000000 0.000000
0.090568 0.028527 0.000685 0.000002 0.000000 0.000000
0.092096 0.028626 0.000846 0.000002 0.000000 0.000000
0.093806 0.028115 0.000801 0.000002 0.000000 0.000000
0.095238 0.028467 0.000673 0.000002 0.000000 0.000000
0.096813 0.028575 0.000553 0.000002 0.000000 0.000000
0.098146 0.028651 0.000782 0.000002 0.000000 0.000000
0.099651 0.028187 0.000791 0.000002 0.000000 0.000000
0.100339 0.029408 0.000608 0.000002 0.000000 0.000000
0.102627 0.028569 0.000662 0.000002 0.000000 0.000000
0.103964 0.028963 0.000726 0.000002 0.000000 0.000000
0.104860 0.027932 0.000635 0.000002 0.000000 0.000000
0.106322 0.028425 0.000635 0.000002 0.000000 0.000000
0.108194 0.028635 0.000718 0.000002 0.000000 0.000000
0.109482 0.029012 0.000622 0.000002 0.000000 0.000000
0.110845 0.029091 0.000742 0.000002 0.000000 0.000000
0.112328 0.029180 0.000740 0.000002 0.000000 0.000000
0.113734 0.028945 0.000684 0.000002 0.000000 0.000000
0.114996 0.029260 0.000616 0.000002 0.000000 0.000000
0.116298 0.029294 0.000686 0.000002 0.654627 0.000001
0.117747 0.029080 0.000779 0.000002 0.000000 0.000000
0.119100 0.028422 0.000725 0.000002 0.000000 0.000000
0.121094 0.028868 0.000623 0.000002 0.000000 0.000000
0.122459 0.029202 0.000781 0.000002 0.000000 0.000000
0.123913 0.029711 0.000759 0.000002 1.076481 0.000002
0.126076 0.029107 0.000774 0.000002 0.000000 0.000000
0.127443 0.029533 0.000658 0.000002 0.000000 0.000000
0.128677 0.029926 0.000630 0.000001 0.000000 0.000000
0.129665 0.029240 0.000573 0.000002 0.000000 0.000000
0.131031 0.029352 0.000793 0.000002 0.000000 0.000000
0.132481 0.029144 0.000663 0.000002 0.000000 0.000000
0.133644 0.028532 0.000649 0.000002 0.000000 0.000000
0.135061 0.028280 0.000787 0.000002 0.000000 0.000000
0.136557 0.028207 0.000700 0.000002 0.000000 0.000000
0.137488 0.029376 0.000790 0.000002 0.000000 0.000000
0.139015 0.029228 0.000744 0.000002 0.000000 0.000000
0.140400 0.028889 0.000682 0.000002 0.000000 0.000000
0.141805 0.029106 0.000735 0.000002 0.000000 0.000000
0.143766 0.028660 0.000820 0.000002 0.000000 0.000000
0.145020 0.027787 0.000621 0.000002 0.000000 0.000000
0.146289 0.028395 0.000641 0.000002 0.000000 0.000000
0.147717 0.028836 0.000848 0.000002 0.000000 0.000000
0.149314 0.028685 0.000711 0.000002 0.000000 0.000000
0.150760 0.028532 0.000740 0.000002 0.074180 0.000000
0.152214 0.028567 0.000715 0.000002 0.000000 0.000000
0.153612 0.028421 0.000687 0.000002 0.000000 0.000000
0.154972 0.028134 0.000687 0.000002 0.000000 0.000000
0.156350 0.027828 0.000721 0.000002 0.000000 0.000000
0.157722 0.028035 0.000665 0.000002 0.000000 0.000000
0.159160 0.027855 0.000614 0.000002 0.000000 0.000000
0.159886 0.029063 0.000731 0.000002 0.000000 0.000000
0.161293 0.028867 0.000687 0.000002 0.000000 0.000000
0.162667 0.028881 0.000686 0.000002 0.000000 0.000000
0.163984 0.029054 0.000641 0.000002 0.000000 0.000000
0.165503 0.028707 0.000623 0.000002 0.000000 0.000000
0.166902 0.029049 0.000732 0.000002 0.000000 0.000000
0.168305 0.029096 0.000660 0.000002 0.000000 0.000000
0.169766 0.029063 0.000789 0.000002 0.000000 0.000000
0.171293 0.029189 0.000738 0.000002 0.000000 0.000000
0.172745 0.029397 0.000719 0.000002 0.000000 0.000000
0.174205 0.029529 0.000738 0.000002 0.000000 0.000000
0.175671 0.029645 0.000729 0.000002 0.000000 0.000000
0.177191 0.029348 0.000774 0.000002 0.000000 0.000000
0.178715 0.028836 0.000656 0.000002 0.000000 0.000000
0.180066 0.028838 0.000693 0.000002 0.000000 0.000000
0.181334 0.028392 0.000645 0.000002 0.000000 0.000000
0.182786 0.028234 0.000816 0.000002 0.000000 0.000000
0.184175 0.028352 0.000577 0.000002 0.640628 0.000001
0.185426 0.028548 0.000689 0.000002 31.574998 0.000057
0.186687 0.028465 0.000568 0.000001 0.000000 0.000000
0.187770 0.028922 0.000601 0.000002 0.000000 0.000000
0.188980 0.029656 0.000808 0.000002 0.000000 0.000000
0.190149 0.028621 0.000716 0.000002 0.000000 0.000000
0.191596 0.028965 0.000757 0.000002 45.542778 0.000088
0.193044 0.029208 0.000708 0.000002 0.000000 0.000000
0.194383 0.029374 0.000639 0.000002 72.662458 0.000129
0.195332 0.028388 0.000725 0.000002 0.000000 0.000000
0.196766 0.028324 0.000711 0.000002 92.331554 0.000174
0.198172 0.028162 0.000705 0.000002 0.000000 0.000000
0.199373 0.028639 0.000582 0.000002 0.000000 0.000000
0.200571 0.028187 0.000688 0.000002 0.000000 0.000000
0.202022 0.028349 0.000747 0.000002 0.000000 0.000000
0.203563 0.028229 0.000669 0.000002 0.000000 0.000000
0.205311 0.028179 0.000779 0.000002 0.000000 0.000000
0.206679 0.028104 0.000590 0.000002 0.000000 0.000000
0.207922 0.028069 0.000652 0.000002 0.000000 0.000000
0.209133 0.027989 0.000559 0.000002 13.399633 0.000020
0.210346 0.028057 0.000654 0.000002 366.831514 0.000614
0.211652 0.028558 0.000722 0.000002 42.820632 0.000085
0.213189 0.028555 0.000798 0.000002 0.000000 0.000000
0.214683 0.028568 0.000687 0.000002 0.000000 0.000000
0.216309 0.028533 0.000783 0.000002 4.601736 0.000010
0.217783 0.028192 0.000730 0.000002 0.000000 0.000000
0.219156 0.027893 0.000675 0.000002 0.000000 0.000000
0.220492 0.027664 0.000678 0.000002 0.000000 0.000000
0.221529 0.028702 0.000737 0.000002 0.000000 0.000000
0.223018 0.028480 0.000700 0.000003 0.000000 0.000000
0.000711 0.031631 0.000700 0.000002 0.000000 0.000000
0.002053 0.029729 0.000706 0.000002 76.011453 0.000143
0.003446 0.030248 0.000634 0.000002 113.605900 0.000188
0.004881 0.030752 0.000681 0.000002 46.521963 0.000088
0.005964 0.029750 0.000794 0.000002 0.000000 0.000000
0.007451 0.030034 0.000716 0.000002 30.875752 0.000060
0.008831 0.029693 0.000675 0.000002 0.000000 0.000000
0.010216 0.029428 0.000715 0.000002 14.087728 0.000025
0.011684 0.029198 0.000766 0.000002 0.000000 0.000000
0.012545 0.030376 0.000672 0.000002 24.676800 0.000043
0.014018 0.030360 0.000738 0.000002 0.000000 0.000000
0.015570 0.030225 0.000814 0.000002 0.000000 0.000000
0.016979 0.030642 0.000653 0.000002 0.000000 0.000000
0.018428 0.030578 0.000796 0.000002 0.000000 0.000000
0.019973 0.030366 0.000761 0.000002 0.000000 0.000000
0.021263 0.029865 0.000622 0.000002 0.000000 0.000000
0.022498 0.030002 0.000620 0.000002 0.000000 0.000000
0.023748 0.029755 0.000654 0.000002 37.725930 0.000062
0.025068 0.030089 0.000705 0.000002 0.000000 0.000000
0.026446 0.030490 0.000728 0.000002 0.000000 0.000000
0.027940 0.030790 0.000793 0.000002 1.046448 0.000002
0.029459 0.031156 0.000769 0.000002 57.338878 0.000118
0.031231 0.030597 0.000682 0.000002 0.000000 0.000000
0.032523 0.030055 0.000717 0.000002 0.000000 0.000000
0.034312 0.029957 0.000679 0.000002 0.000000 0.000000
0.035587 0.029920 0.000596 0.000002 0.000000 0.000000
0.036838 0.029766 0.000664 0.000002 0.000000 0.000000
0.038218 0.030399 0.000851 0.000002 218.235839 0.000490
0.039797 0.030354 0.000622 0.000002 0.000000 0.000000
0.041434 0.030257 0.000735 0.000002 0.000000 0.000000
0.042700 0.029535 0.000723 0.000002 0.000000 0.000000
0.044034 0.029187 0.000655 0.000002 0.000000 0.000000
0.045351 0.029585 0.000721 0.000002 0.000000 0.000000
0.046671 0.029755 0.000608 0.000002 0.000000 0.000000
0.047937 0.029545 0.000674 0.000002 0.000000 0.000000
0.049269 0.029457 0.000660 0.000002 0.000000 0.000000
0.051358 0.029391 0.000774 0.000002 0.000000 0.000000
0.052746 0.029740 0.000656 0.000002 194.534167 0.000332
0.053963 0.030033 0.000584 0.000002 0.000000 0.000000
0.055139 0.030089 0.000591 0.000002 0.000000 0.000000
0.056536 0.029910 0.000816 0.000002 48.309999 0.000094
0.058042 0.029706 0.000699 0.000002 0.000000 0.000000
0.059329 0.029396 0.000587 0.000002 0.000000 0.000000
0.060571 0.029723 0.000690 0.000002 0.000000 0.000000
0.061955 0.030018 0.000722 0.000002 0.000000 0.000000
0.063332 0.029460 0.000762 0.000002 0.000000 0.000000
0.064667 0.029087 0.000619 0.000002 2.121647 0.000003
0.065897 0.029322 0.000633 0.000002 13.236118 0.000022
0.068436 0.029622 0.000825 0.000002 0.000000 0.000000
0.069900 0.029763 0.000645 0.000002 0.000000 0.000000
0.071315 0.029454 0.000803 0.000002 0.000000 0.000000
0.072735 0.029839 0.000667 0.000002 0.000000 0.000000
0.074196 0.029740 0.000796 0.000002 0.000000 0.000000
0.075670 0.030324 0.000789 0.000002 0.000000 0.000000
0.076959 0.030945 0.000641 0.000002 0.000000 0.000000
0.078346 0.031410 0.000819 0.000002 0.000000 0.000000
0.079505 0.030585 0.000589 0.000002 0.000000 0.000000
0.080855 0.030614 0.000758 0.000002 0.000000 0.000000
0.082388 0.030102 0.000655 0.000002 61.526933 0.000115
0.083845 0.029802 0.000832 0.000002 0.000000 0.000000
0.085335 0.029604 0.000670 0.000002 0.000000 0.000000
0.086421 0.030418 0.000686 0.000002 0.000000 0.000000
0.087812 0.030134 0.000730 0.000002 0.000000 0.000000
0.089313 0.029760 0.000811 0.000002 0.610607 0.000001
0.090846 0.029917 0.000730 0.000002 0.000000 0.000000
0.092127 0.030126 0.000567 0.000002 0.000000 0.000000
0.093365 0.029617 0.000763 0.000002 95.357750 0.000188
0.094803 0.029691 0.000617 0.000002 0.000000 0.000000
0.096154 0.029667 0.000718 0.000002 1.210583 0.000002
0.097505 0.029970 0.000667 0.000002 0.000000 0.000000
0.099023 0.030053 0.000853 0.000002 0.000000 0.000000
0.101540 0.029708 0.000628 0.000002 0.000000 0.000000
0.102881 0.029946 0.000735 0.000002 1.156602 0.000002
0.104172 0.030281 0.000599 0.000002 0.000000 0.000000
0.105398 0.029559 0.000823 0.000002 0.000000 0.000000
0.107058 0.029687 0.000818 0.000002 0.000000 0.000000
0.108566 0.030032 0.000728 0.000002 0.000000 0.000000
0.109999 0.030304 0.000730 0.000002 0.000000 0.000000
0.111325 0.030340 0.000594 0.000002 0.000000 0.000000
0.112680 0.030676 0.000793 0.000002 0.000000 0.000000
0.114104 0.030271 0.000687 0.000002 0.000000 0.000000
0.115539 0.030543 0.000771 0.000002 0.000000 0.000000
0.117102 0.030533 0.000791 0.000002 0.000000 0.000000
0.118630 0.030337 0.000742 0.000002 0.000000 0.000000
0.119949 0.029634 0.000753 0.000002 1.988865 0.000004
0.121339 0.030307 0.000792 0.000002 0.000000 0.000000
0.122797 0.030638 0.000692 0.000002 0.000000 0.000000
0.125235 0.030293 0.000678 0.000002 0.000000 0.000000
0.126562 0.030557 0.000670 0.000002 0.000000 0.000000
0.127777 0.030695 0.000550 0.000001 0.000000 0.000000
0.128942 0.031088 0.000559 0.000001 0.000000 0.000000
0.130280 0.030778 0.000814 0.000002 0.000000 0.000000
0.131944 0.030689 0.000817 0.000002 0.000000 0.000000
0.133190 0.030128 0.000548 0.000002 0.000000 0.000000
0.134436 0.029716 0.000762 0.000002 0.000000 0.000000
0.135947 0.029564 0.000754 0.000002 0.000000 0.000000
0.136914 0.030823 0.000754 0.000002 0.000000 0.000000
0.138412 0.030595 0.000739 0.000002 126.859401 0.000247
0.140031 0.030465 0.000844 0.000002 36.932757 0.000080
0.141543 0.030479 0.000662 0.000002 0.000000 0.000000
0.142966 0.030110 0.000799 0.000002 0.000000 0.000000
0.144314 0.029929 0.000560 0.000002 0.000000 0.000000
0.145181 0.029064 0.000650 0.000002 0.000000 0.000000
0.146409 0.029841 0.000795 0.000002 0.000000 0.000000
0.148757 0.029998 0.000707 0.000002 0.000000 0.000000
0.150115 0.029797 0.000657 0.000002 0.000000 0.000000
0.151499 0.029824 0.000728 0.000002 0.000000 0.000000
0.153077 0.029835 0.000809 0.000002 0.000000 0.000000
0.154525 0.029448 0.000686 0.000002 0.000000 0.000000
0.156032 0.029347 0.000822 0.000002 0.000000 0.000000
0.157546 0.029623 0.000717 0.000002 0.000000 0.000000
0.158602 0.028894 0.000564 0.000001 0.000000 0.000000
0.158905 0.030148 0.000720 0.000002 0.000000 0.000000
0.161587 0.030265 0.000727 0.000002 0.000000 0.000000
0.163094 0.030291 0.000779 0.000002 0.000000 0.000000
0.164543 0.030245 0.000671 0.000002 0.000000 0.000000
0.165887 0.030045 0.000686 0.000002 0.000000 0.000000
0.167335 0.030580 0.000850 0.000002 0.000000 0.000000
0.168939 0.030381 0.000764 0.000002 0.000000 0.000000
0.170473 0.030453 0.000763 0.000002 0.000000 0.000000
0.171951 0.030667 0.000727 0.000002 0.000000 0.000000
0.173351 0.030659 0.000668 0.000002 0.000000 0.000000
0.174734 0.030842 0.000668 0.000002 0.000000 0.000000
0.176003 0.030937 0.000605 0.000002 0.000000 0.000000
0.177275 0.030796 0.000674 0.000002 0.000000 0.000000
0.178557 0.030229 0.000728 0.000002 0.000000 0.000000
0.179930 0.030169 0.000641 0.000002 0.000000 0.000000
0.181257 0.029779 0.000732 0.000002 0.000000 0.000000
0.182605 0.029667 0.000616 0.000002 0.000000 0.000000
0.183938 0.029636 0.000712 0.000002 0.000000 0.000000
0.185353 0.029957 0.000721 0.000002 12.985489 0.000024
0.186754 0.029729 0.000691 0.000002 0.000000 0.000000
0.187826 0.030630 0.000702 0.000002 26.221852 0.000049
0.189556 0.031103 0.000599 0.000002 5.208519 0.000009
0.190525 0.030096 0.000798 0.000002 0.000000 0.000000
0.192063 0.030420 0.000770 0.000002 27.144874 0.000058
0.193618 0.030639 0.000799 0.000002 0.000000 0.000000
0.195177 0.030527 0.000761 0.000002 196.903067 0.000386
0.196101 0.029496 0.000623 0.000002 0.000000 0.000000
0.197434 0.029580 0.000712 0.000002 109.305825 0.000213
0.198833 0.029809 0.000706 0.000002 0.000000 0.000000
0.200323 0.029646 0.000791 0.000002 0.000000 0.000000
0.201746 0.029731 0.000631 0.000002 0.000000 0.000000
0.203148 0.029612 0.000775 0.000002 0.000000 0.000000
0.204717 0.029634 0.000793 0.000002 0.000000 0.000000
0.206249 0.029314 0.000694 0.000002 5.065949 0.000010
0.207606 0.029296 0.000610 0.000002 0.000000 0.000000
0.208975 0.029255 0.000716 0.000002 26.402228 0.000049
0.210472 0.029481 0.000776 0.000002 213.745275 0.000439
0.212350 0.029734 0.000646 0.000002 0.040880 0.000000
0.213672 0.029896 0.000621 0.000002 0.000000 0.000000
0.214955 0.029881 0.000652 0.000002 0.000000 0.000000
0.216303 0.030016 0.000700 0.000002 0.000000 0.000000
0.217566 0.029500 0.000593 0.000002 0.000000 0.000000
0.218755 0.029152 0.000635 0.000002 0.000000 0.000000
0.220114 0.029029 0.000710 0.000002 0.000000 0.000000
0.220994 0.030165 0.000701 0.000002 0.000000 0.000000
0.222422 0.029892 0.000728 0.000002 0.000000 0.000000
0.001924 0.032392 0.000730 0.000002 192.236839 0.000375
0.002412 0.031068 0.000681 0.000002 0.000000 0.000000
0.003736 0.031587 0.000736 0.000002 211.190138 0.000461
0.005679 0.031914 0.000717 0.000002 0.000000 0.000000
0.006543 0.030999 0.000539 0.000002 0.000000 0.000000
0.008372 0.031202 0.000771 0.000002 51.606301 0.000104
0.009723 0.030717 0.000664 0.000002 0.000000 0.000000
0.011139 0.030618 0.000754 0.000002 0.000000 0.000000
0.012090 0.031508 0.000548 0.000002 0.000000 0.000000
0.013351 0.031657 0.000720 0.000002 0.000000 0.000000
0.014759 0.031579 0.000685 0.000002 0.000000 0.000000
0.016108 0.031630 0.000663 0.000002 0.000000 0.000000
0.017010 0.032489 0.000583 0.000002 38.198098 0.000063
0.018267 0.032103 0.000732 0.000002 0.000000 0.000000
0.019661 0.031796 0.000689 0.000002 0.000000 0.000000
0.021193 0.031258 0.000749 0.000002 0.000000 0.000000
0.022677 0.031355 0.000730 0.000002 0.000000 0.000000
0.024015 0.031026 0.000644 0.000002 0.000000 0.000000
0.025346 0.031557 0.000789 0.000002 4.176453 0.000009
0.026890 0.032046 0.000829 0.000002 27.374807 0.000060
0.028357 0.032155 0.000634 0.000002 0.000000 0.000000
0.029567 0.032556 0.000634 0.000002 81.180049 0.000141
0.030791 0.031949 0.000732 0.000002 0.000000 0.000000
0.032197 0.031604 0.000710 0.000002 0.000000 0.000000
0.033508 0.031079 0.000701 0.000002 0.000000 0.000000
0.035050 0.031089 0.000667 0.000002 0.000000 0.000000
0.036327 0.030944 0.000604 0.000002 0.000000 0.000000
0.037405 0.031769 0.000743 0.000002 36.387938 0.000076
0.039260 0.031669 0.000791 0.000002 9.609320 0.000019
0.040594 0.031288 0.000595 0.000002 0.000000 0.000000
0.042764 0.031089 0.000828 0.000002 0.000000 0.000000
0.044234 0.030532 0.000701 0.000002 0.000000 0.000000
0.045905 0.030970 0.000770 0.000002 0.000000 0.000000
0.047378 0.030865 0.000705 0.000002 0.000000 0.000000
0.048769 0.030718 0.000692 0.000002 0.000000 0.000000
0.050272 0.030558 0.000818 0.000002 0.000000 0.000000
0.051846 0.030776 0.000691 0.000002 19.800658 0.000035
0.053166 0.030966 0.000640 0.000001 0.000000 0.000000
0.054493 0.031122 0.000622 0.000001 0.000000 0.000000
0.055773 0.031154 0.000643 0.000002 0.000000 0.000000
0.057100 0.031254 0.000642 0.000002 0.000000 0.000000
0.058263 0.030945 0.000558 0.000001 0.000000 0.000000
0.059380 0.030594 0.000610 0.000002 0.000000 0.000000
0.060571 0.031106 0.000684 0.000002 1.946067 0.000003
0.061793 0.031287 0.000551 0.000001 2.239871 0.000003
0.063107 0.031007 0.000792 0.000002 0.000000 0.000000
0.064450 0.030385 0.000684 0.000002 0.000000 0.000000
0.065783 0.030637 0.000673 0.000002 0.000000 0.000000
0.066995 0.030027 0.000672 0.000002 12.272660 0.000024
0.069221 0.030904 0.000679 0.000002 0.000000 0.000000
0.070549 0.031277 0.000699 0.000002 0.000000 0.000000
0.071839 0.030828 0.000666 0.000002 0.000000 0.000000
0.073114 0.031071 0.000621 0.000002 0.000000 0.000000
0.074459 0.031252 0.000736 0.000002 0.000000 0.000000
0.075779 0.031810 0.000695 0.000002 6.107770 0.000011
0.077096 0.032316 0.000715 0.000002 0.000000 0.000000
0.078470 0.032839 0.000604 0.000002 8.603074 0.000015
0.079753 0.031801 0.000639 0.000002 -0.400380 -0.000001
0.081006 0.032009 0.000631 0.000002 76.286582 0.000122
0.082029 0.031313 0.000607 0.000002 0.000000 0.000000
0.083487 0.031453 0.000853 0.000002 0.000000 0.000000
0.085111 0.031108 0.000794 0.000002 53.315631 0.000127
0.087204 0.031572 0.000706 0.000002 0.000000 0.000000
0.088602 0.031345 0.000709 0.000002 0.000000 0.000000
0.090017 0.031123 0.000720 0.000002 0.000000 0.000000
0.091502 0.031323 0.000778 0.000002 2.170687 0.000004
0.092987 0.031374 0.000707 0.000002 0.000000 0.000000
0.094160 0.030750 0.000621 0.000002 0.000000 0.000000
0.095403 0.030780 0.000623 0.000002 0.000000 0.000000
0.096629 0.031219 0.000680 0.000002 101.667591 0.000176
0.098020 0.031254 0.000711 0.000002 0.000000 0.000000
0.099379 0.031623 0.000698 0.000002 0.000000 0.000000
0.100498 0.030739 0.000726 0.000002 0.000000 0.000000
0.101906 0.031013 0.000707 0.000002 0.000000 0.000000
0.103358 0.031340 0.000736 0.000002 0.000000 0.000000
0.104785 0.031476 0.000695 0.000002 0.000000 0.000000
0.106131 0.030953 0.000746 0.000002 0.000000 0.000000
0.107645 0.031246 0.000792 0.000002 0.000000 0.000000
0.109071 0.031301 0.000631 0.000002 0.000000 0.000000
0.110377 0.031731 0.000740 0.000002 0.000000 0.000000
0.111750 0.031764 0.000631 0.000002 0.000000 0.000000
0.113846 0.031696 0.000754 0.000002 0.000000 0.000000
0.115195 0.031880 0.000604 0.000002 0.000000 0.000000
0.116550 0.031995 0.000756 0.000002 0.000000 0.000000
0.118094 0.031784 0.000798 0.000002 0.000000 0.000000
0.119677 0.031489 0.000810 0.000002 0.000000 0.000000
0.121133 0.031759 0.000670 0.000002 59.837143 0.000121
0.122684 0.031934 0.000596 0.000002 24.064193 0.000043
0.124140 0.031311 0.000800 0.000002 0.000000 0.000000
0.125655 0.031660 0.000749 0.000002 0.000000 0.000000
0.127161 0.031875 0.000764 0.000002 76.036515 0.000138
0.128498 0.032168 0.000600 0.000002 0.000000 0.000000
0.129759 0.032142 0.000639 0.000002 0.000000 0.000000
0.131181 0.032094 0.000769 0.000002 0.000000 0.000000
0.132807 0.032094 0.000824 0.000002 0.000000 0.000000
0.133871 0.031094 0.000625 0.000002 0.000000 0.000000
0.135337 0.031064 0.000842 0.000002 0.000000 0.000000
0.135937 0.032571 0.000770 0.000002 12.560207 0.000028
0.137864 0.031895 0.000671 0.000002 113.847648 0.000205
0.139224 0.031773 0.000691 0.000002 70.669464 0.000136
0.140940 0.031738 0.000720 0.000002 33.330027 0.000065
0.142334 0.031568 0.000663 0.000002 0.000000 0.000000
0.143655 0.031404 0.000666 0.000002 0.000000 0.000000
0.145061 0.031060 0.000776 0.000002 18.022153 0.000037
0.146570 0.031400 0.000770 0.000002 5.857011 0.000012
0.147998 0.031159 0.000677 0.000002 83.689451 0.000175
0.149344 0.031240 0.000665 0.000002 0.704146 0.000001
0.150693 0.031035 0.000700 0.000002 -0.713514 -0.000001
0.152209 0.031234 0.000829 0.000002 0.000000 0.000000
0.153591 0.031105 0.000558 0.000002 4.050009 0.000007
0.154899 0.030877 0.000769 0.000002 0.000000 0.000000
0.156537 0.030917 0.000800 0.000002 0.000000 0.000000
0.158032 0.031334 0.000746 0.000002 0.000000 0.000000
0.159847 0.031425 0.000860 0.000003 0.000000 0.000000
0.161320 0.031586 0.000621 0.000002 23.174082 0.000041
0.162592 0.031634 0.000649 0.000002 0.000000 0.000000
0.163962 0.031521 0.000722 0.000002 0.000000 0.000000
0.165392 0.031347 0.000696 0.000002 0.000000 0.000000
0.166621 0.031885 0.000635 0.000002 0.000000 0.000000
0.168371 0.031673 0.000645 0.000002 0.000000 0.000000
0.169661 0.031607 0.000647 0.000002 0.000000 0.000000
0.170988 0.031766 0.000643 0.000002 0.000000 0.000000
0.172302 0.032300 0.000773 0.000002 0.000000 0.000000
0.173869 0.032047 0.000811 0.000002 80.947479 0.000162
0.175385 0.032111 0.000706 0.000002 25.634259 0.000044
0.176705 0.031958 0.000617 0.000002 11.743960 0.000020
0.178240 0.031760 0.000680 0.000002 0.000000 0.000000
0.179495 0.031370 0.000629 0.000002 0.000000 0.000000
0.180838 0.031187 0.000717 0.000002 0.000000 0.000000
0.182143 0.030829 0.000632 0.000002 0.000000 0.000000
0.183479 0.030989 0.000708 0.000002 0.000000 0.000000
0.184869 0.031300 0.000706 0.000002 0.000000 0.000000
0.186311 0.030988 0.000637 0.000002 0.000000 0.000000
0.187266 0.031892 0.000676 0.000002 0.000000 0.000000
0.188532 0.031719 0.000596 0.000001 46.374212 0.000067
0.189601 0.032447 0.000693 0.000002 67.915133 0.000110
0.190937 0.031687 0.000845 0.000002 -0.557172 -0.000001
0.192527 0.031873 0.000756 0.000002 27.011926 0.000053
0.193927 0.032073 0.000658 0.000002 0.000000 0.000000
0.195295 0.031994 0.000711 0.000002 149.277876 0.000310
0.196479 0.031213 0.000707 0.000002 0.547776 0.000001
0.197921 0.030965 0.000756 0.000002 70.093418 0.000141
0.199617 0.030920 0.000652 0.000002 0.000000 0.000000
0.201096 0.030922 0.000701 0.000002 59.980837 0.000102
0.202450 0.030889 0.000654 0.000002 0.000000 0.000000
0.203887 0.030924 0.000725 0.000002 248.044928 0.000481
0.205447 0.031065 0.000804 0.000002 0.000000 0.000000
0.206999 0.030618 0.000811 0.000002 61.598016 0.000130
0.208470 0.030533 0.000658 0.000002 52.316993 0.000100
0.209803 0.030780 0.000686 0.000002 172.039531 0.000332
0.211359 0.030780 0.000795 0.000002 0.000000 0.000000
0.212885 0.031008 0.000736 0.000002 21.794310 0.000040
0.214293 0.031034 0.000670 0.000002 0.000000 0.000000
0.215559 0.031072 0.000591 0.000002 0.000000 0.000000
0.217155 0.031217 0.000767 0.000002 0.000000 0.000000
0.218472 0.030493 0.000735 0.000002 0.000000 0.000000
0.219730 0.030243 0.000546 0.000002 0.000000 0.000000
0.220269 0.031361 0.000693 0.000002 0.000000 0.000000
0.221842 0.031175 0.000617 0.000002 0.000000 0.000000
0.223689 0.030740 0.000701 0.000003 0.000000 0.000000
0.000643 0.032942 0.000612 0.000002 0.000000 0.000000
0.002061 0.033782 0.000667 0.000002 144.847994 0.000260
0.003372 0.033093 0.000814 0.000002 -0.455880 -0.000001
0.004929 0.033171 0.000746 0.000002 0.701449 0.000001
0.007162 0.032175 0.000781 0.000002 4.341356 0.000008
0.008459 0.032806 0.000651 0.000002 87.314892 0.000162
0.009533 0.032047 0.000665 0.000002 4.251815 0.000008
0.010964 0.032211 0.000776 0.000002 12.480842 0.000026
0.012395 0.032818 0.000779 0.000002 19.085351 0.000039
0.013869 0.033002 0.000707 0.000002 0.000000 0.000000
0.015371 0.032931 0.000797 0.000002 3.769222 0.000007
0.016582 0.033555 0.000566 0.000002 53.368916 0.000094
0.017858 0.033472 0.000696 0.000002 0.000000 0.000000
0.019229 0.033188 0.000700 0.000002 0.000000 0.000000
0.020755 0.032887 0.000854 0.000002 0.000000 0.000000
0.022462 0.032937 0.000851 0.000002 16.825719 0.000041
0.024056 0.032499 0.000797 0.000002 0.000000 0.000000
0.025649 0.033090 0.000774 0.000002 0.000000 0.000000
0.027095 0.033620 0.000759 0.000002 0.000000 0.000000
0.028702 0.033767 0.000854 0.000002 87.931860 0.000196
0.030295 0.033725 0.000739 0.000002 3.837044 0.000008
0.031689 0.033156 0.000765 0.000002 0.000000 0.000000
0.032991 0.032677 0.000622 0.000002 0.000000 0.000000
0.034299 0.032287 0.000743 0.000002 66.309948 0.000121
0.035906 0.032355 0.000860 0.000002 83.132317 0.000163
0.037188 0.033128 0.000634 0.000002 12.848914 0.000021
0.038483 0.032915 0.000678 0.000002 0.000000 0.000000
0.040370 0.032405 0.000541 0.000001 22.015007 0.000031
0.041607 0.032107 0.000687 0.000002 0.000000 0.000000
0.043061 0.032428 0.000544 0.000002 0.000000 0.000000
0.043994 0.031793 0.000584 0.000002 1.694385 0.000003
0.045238 0.032385 0.000794 0.000002 0.000000 0.000000
0.046842 0.032277 0.000806 0.000002 19.244954 0.000040
0.048358 0.032067 0.000717 0.000002 0.000000 0.000000
0.049665 0.031857 0.000603 0.000002 0.000000 0.000000
0.051002 0.031897 0.000706 0.000002 0.000000 0.000000
0.052386 0.032040 0.000684 0.000002 0.000000 0.000000
0.053714 0.032115 0.000633 0.000002 0.000000 0.000000
0.055013 0.032305 0.000670 0.000002 0.000000 0.000000
0.056351 0.032328 0.000666 0.000002 0.000000 0.000000
0.058051 0.032148 0.000655 0.000002 0.000000 0.000000
0.059437 0.031975 0.000740 0.000002 0.000000 0.000000
0.061140 0.032262 0.000603 0.000002 0.000000 0.000000
0.062437 0.032344 0.000686 0.000002 0.160648 0.000000
0.063846 0.032502 0.000732 0.000002 0.000000 0.000000
0.064914 0.031632 0.000645 0.000002 0.000000 0.000000
0.066347 0.031977 0.000764 0.000002 0.000000 0.000000
0.067811 0.031207 0.000764 0.000002 0.000000 0.000000
0.068872 0.032263 0.000718 0.000002 0.000000 0.000000
0.070217 0.032648 0.000678 0.000002 0.000000 0.000000
0.071656 0.032294 0.000804 0.000002 0.000000 0.000000
0.073173 0.032414 0.000717 0.000002 1.323580 0.000002
0.074646 0.032795 0.000804 0.000002 1.068779 0.000002
0.076046 0.033225 0.000661 0.000002 0.000000 0.000000
0.077383 0.033799 0.000794 0.000002 17.753713 0.000034
0.079803 0.033088 0.000641 0.000002 0.000000 0.000000
0.081181 0.033394 0.000765 0.000002 8.665391 0.000015
0.082201 0.032496 0.000588 0.000002 0.000000 0.000000
0.083295 0.032912 0.000581 0.000002 15.850064 0.000026
0.084647 0.032632 0.000799 0.000002 20.633112 0.000042
0.086195 0.032620 0.000747 0.000002 0.000000 0.000000
0.087627 0.032930 0.000713 0.000002 0.000000 0.000000
0.089084 0.032730 0.000749 0.000002 0.000000 0.000000
0.090539 0.032480 0.000727 0.000002 0.000000 0.000000
0.092290 0.032621 0.000718 0.000002 0.000000 0.000000
0.093664 0.032554 0.000652 0.000002 0.000000 0.000000
0.094739 0.031855 0.000625 0.000002 0.000000 0.000000
0.095911 0.032324 0.000636 0.000002 0.000000 0.000000
0.097259 0.032464 0.000716 0.000002 0.000000 0.000000
0.098637 0.032834 0.000710 0.000002 0.000000 0.000000
0.100790 0.032366 0.000896 0.000002 0.000000 0.000000
0.102353 0.032318 0.000666 0.000002 -0.025611 -0.000000
0.103693 0.032945 0.000813 0.000002 0.000000 0.000000
0.105266 0.032857 0.000762 0.000002 0.000000 0.000000
0.106611 0.032311 0.000688 0.000002 0.000000 0.000000
0.107880 0.032675 0.000631 0.000002 0.000000 0.000000
0.109215 0.032629 0.000704 0.000002 0.000000 0.000000
0.110437 0.033062 0.000592 0.000001 0.000000 0.000000
0.111604 0.032967 0.000578 0.000001 0.000000 0.000000
0.112844 0.032736 0.000683 0.000002 0.000000 0.000000
0.114755 0.033089 0.000668 0.000002 0.000000 0.000000
0.116115 0.033414 0.000724 0.000002 0.000000 0.000000
0.117447 0.033076 0.000641 0.000002 0.000000 0.000000
0.118827 0.033129 0.000730 0.000002 0.000000 0.000000
0.120340 0.033000 0.000788 0.000002 0.000000 0.000000
0.121849 0.032951 0.000721 0.000002 86.391952 0.000144
0.123205 0.033047 0.000633 0.000002 0.043760 0.000000
0.124642 0.032855 0.000817 0.000002 0.000000 0.000000
0.126205 0.033071 0.000757 0.000002 0.000000 0.000000
0.127732 0.033253 0.000728 0.000002 0.000000 0.000000
0.129159 0.033342 0.000695 0.000002 0.000000 0.000000
0.130608 0.033522 0.000759 0.000002 0.000000 0.000000
0.131951 0.033248 0.000610 0.000002 0.000000 0.000000
0.133362 0.033680 0.000856 0.000002 0.000000 0.000000
0.134397 0.032401 0.000779 0.000002 0.000000 0.000000
0.135048 0.033678 0.000649 0.000002 38.651057 0.000074
0.137220 0.032955 0.000569 0.000002 155.423511 0.000287
0.138587 0.033203 0.000809 0.000002 54.790008 0.000113
0.140070 0.032885 0.000706 0.000002 61.515813 0.000123
0.141533 0.033109 0.000774 0.000002 18.759270 0.000041
0.143122 0.032846 0.000835 0.000002 20.005365 0.000045
0.144535 0.032385 0.000650 0.000002 0.000000 0.000000
0.145780 0.032523 0.000603 0.000002 55.540320 0.000092
0.147025 0.032711 0.000613 0.000002 0.000000 0.000000
0.148374 0.032529 0.000744 0.000002 144.572439 0.000267
0.149863 0.032545 0.000735 0.000002 0.000000 0.000000
0.151347 0.032559 0.000748 0.000002 0.000000 0.000000
0.152707 0.032585 0.000602 0.000002 0.000000 0.000000
0.154057 0.032373 0.000762 0.000002 0.000000 0.000000
0.155660 0.032301 0.000833 0.000002 0.000000 0.000000
0.157167 0.032501 0.000687 0.000002 0.000000 0.000000
0.158788 0.032691 0.000784 0.000002 0.000000 0.000000
0.160492 0.032805 0.000662 0.000002 20.198176 0.000038
0.161857 0.032796 0.000702 0.000002 35.651120 0.000059
0.163295 0.032833 0.000733 0.000002 18.207758 0.000033
0.164866 0.032799 0.000838 0.000002 0.000000 0.000000
0.166378 0.033244 0.000738 0.000002 0.000000 0.000000
0.167765 0.032880 0.000696 0.000002 0.000000 0.000000
0.169094 0.032757 0.000632 0.000002 0.000000 0.000000
0.170287 0.032745 0.000558 0.000001 0.000000 0.000000
0.171393 0.033474 0.000711 0.000002 0.000000 0.000000
0.173279 0.033389 0.000656 0.000002 80.400722 0.000149
0.174677 0.033363 0.000733 0.000002 60.243527 0.000112
0.176061 0.033321 0.000645 0.000002 0.000000 0.000000
0.177560 0.033160 0.000858 0.000002 0.000000 0.000000
0.179068 0.033020 0.000648 0.000002 0.000000 0.000000
0.180232 0.032420 0.000654 0.000002 11.987827 0.000022
0.181903 0.032209 0.000747 0.000002 0.000000 0.000000
0.183292 0.032325 0.000639 0.000002 0.000000 0.000000
0.184557 0.032631 0.000658 0.000002 0.000000 0.000000
0.185899 0.032254 0.000693 0.000002 0.000000 0.000000
0.186906 0.033260 0.000727 0.000002 0.000000 0.000000
0.188218 0.032900 0.000625 0.000002 0.000000 0.000000
0.189161 0.033616 0.000556 0.000002 93.997667 0.000145
0.190462 0.033406 0.000590 0.000002 0.000000 0.000000
0.191687 0.033049 0.000686 0.000002 0.000000 0.000000
0.193121 0.033120 0.000625 0.000002 20.428920 0.000035
0.194469 0.033427 0.000758 0.000002 16.310081 0.000034
0.196111 0.033366 0.000885 0.000002 66.521586 0.000159
0.197364 0.032381 0.000700 0.000002 0.000000 0.000000
0.198869 0.032185 0.000788 0.000002 121.078616 0.000240
0.200390 0.032164 0.000728 0.000002 74.569307 0.000139
0.201734 0.032072 0.000612 0.000002 0.000000 0.000000
0.203043 0.032069 0.000667 0.000002 0.000000 0.000000
0.204468 0.032304 0.000772 0.000002 141.816876 0.000273
0.205795 0.032389 0.000556 0.000002 0.000000 0.000000
0.207313 0.032074 0.000679 0.000002 49.564247 0.000103
0.208868 0.031941 0.000805 0.000002 156.799445 0.000327
0.210476 0.032055 0.000755 0.000002 29.216684 0.000058
0.211988 0.032211 0.000765 0.000002 40.975753 0.000083
0.213550 0.032399 0.000803 0.000002 0.316286 0.000001
0.214946 0.032144 0.000616 0.000002 0.000000 0.000000
0.216274 0.032465 0.000744 0.000002 0.000000 0.000000
0.217778 0.032645 0.000772 0.000002 0.000000 0.000000
0.218970 0.031819 0.000677 0.000002 0.000000 0.000000
0.219965 0.032729 0.000670 0.000002 0.000000 0.000000
0.221321 0.032408 0.000721 0.000002 0.000000 0.000000
0.222988 0.032035 0.000768 0.000002 0.000000 0.000000
0.000771 0.034414 0.000770 0.000002 290.854409 0.000575
0.003020 0.034549 0.000560 0.000002 0.000000 0.000000
0.004390 0.034638 0.000812 0.000002 0.000000 0.000000
0.006279 0.033244 0.000606 0.000002 0.000000 0.000000
0.007495 0.033772 0.000714 0.000002 121.392334 0.000221
0.008915 0.034186 0.000764 0.000002 0.000000 0.000000
0.010080 0.033353 0.000668 0.000002 0.000000 0.000000
0.011395 0.034082 0.000833 0.000002 32.810669 0.000078
0.013063 0.034335 0.000849 0.000002 0.000000 0.000000
0.014531 0.034146 0.000615 0.000002 0.000000 0.000000
0.015600 0.035035 0.000762 0.000002 0.000000 0.000000
0.017154 0.034806 0.000809 0.000002 52.104185 0.000103
0.018687 0.034595 0.000680 0.000002 58.477522 0.000109
0.020085 0.034320 0.000710 0.000002 0.000000 0.000000
0.021592 0.034298 0.000751 0.000002 0.000000 0.000000
0.023055 0.034385 0.000713 0.000002 0.000000 0.000000
0.024438 0.033975 0.000726 0.000002 0.000000 0.000000
0.025701 0.034626 0.000691 0.000002 2.305913 0.000004
0.026958 0.034980 0.000608 0.000002 0.000000 0.000000
0.028233 0.035237 0.000690 0.000002 90.371249 0.000168
0.029699 0.035127 0.000777 0.000002 8.471348 0.000017
0.031420 0.034565 0.000665 0.000002 3.665517 0.000007
0.032596 0.034135 0.000555 0.000002 0.000000 0.000000
0.033706 0.033710 0.000631 0.000002 0.000000 0.000000
0.034945 0.033488 0.000621 0.000002 48.441421 0.000079
0.036143 0.033810 0.000615 0.000002 36.806755 0.000058
0.036770 0.034952 0.000679 0.000002 0.000000 0.000000
0.037974 0.034151 0.000643 0.000002 92.432080 0.000158
0.039724 0.033419 0.000661 0.000002 0.000000 0.000000
0.041101 0.033364 0.000654 0.000002 0.000000 0.000000
0.042483 0.033584 0.000746 0.000002 0.000000 0.000000
0.044013 0.033233 0.000696 0.000002 29.099938 0.000052
0.046116 0.033577 0.000683 0.000002 87.864607 0.000166
0.047524 0.033651 0.000728 0.000002 39.511238 0.000083
0.048887 0.033361 0.000656 0.000002 0.000000 0.000000
0.050215 0.033079 0.000700 0.000002 0.000000 0.000000
0.051617 0.033210 0.000707 0.000002 0.000000 0.000000
0.053039 0.033262 0.000682 0.000002 278.479100 0.000496
0.054399 0.033563 0.000698 0.000002 0.000000 0.000000
0.055750 0.033509 0.000644 0.000002 6.386592 0.000011
0.057313 0.033313 0.000709 0.000002 0.000000 0.000000
0.058778 0.033278 0.000673 0.000002 0.000000 0.000000
0.060206 0.033265 0.000749 0.000002 0.000000 0.000000
0.061667 0.033442 0.000655 0.000002 0.000000 0.000000
0.062926 0.033533 0.000597 0.000002 0.000000 0.000000
0.064208 0.033935 0.000744 0.000002 0.000000 0.000000
0.065260 0.032952 0.000696 0.000002 0.000000 0.000000
0.066601 0.033458 0.000730 0.000002 130.852246 0.000229
0.067584 0.032550 0.000598 0.000002 0.000000 0.000000
0.067948 0.033727 0.000631 0.000002 0.000000 0.000000
0.069196 0.033552 0.000606 0.000002 0.000000 0.000000
0.071112 0.033872 0.000817 0.000002 16.412013 0.000034
0.072405 0.033416 0.000545 0.000002 0.000000 0.000000
0.073563 0.033803 0.000676 0.000002 0.000000 0.000000
0.074852 0.034303 0.000702 0.000002 0.000000 0.000000
0.076179 0.034627 0.000663 0.000002 0.000000 0.000000
0.078875 0.034098 0.000719 0.000002 8.335850 0.000015
0.080220 0.034466 0.000675 0.000002 6.536545 0.000011
0.081418 0.034707 0.000547 0.000001 0.000000 0.000000
0.082570 0.034058 0.000775 0.000002 0.000000 0.000000
0.084085 0.034087 0.000740 0.000002 50.547272 0.000091
0.085469 0.033840 0.000662 0.000002 0.000000 0.000000
0.086847 0.034390 0.000817 0.000002 39.862123 0.000091
0.088470 0.034207 0.000816 0.000002 0.000000 0.000000
0.090059 0.033927 0.000791 0.000002 0.000000 0.000000
0.091346 0.033484 0.000562 0.000002 0.000000 0.000000
0.092451 0.034065 0.000686 0.000002 -0.236524 -0.000000
0.093744 0.033835 0.000627 0.000002 0.000000 0.000000
0.094862 0.033155 0.000680 0.000002 0.000000 0.000000
0.096157 0.033646 0.000703 0.000002 0.000000 0.000000
0.097612 0.033917 0.000777 0.000002 0.000000 0.000000
0.099805 0.033575 0.000663 0.000002 0.000000 0.000000
0.101085 0.033875 0.000641 0.000002 0.731570 0.000001
0.102383 0.033659 0.000675 0.000002 0.000000 0.000000
0.103381 0.034627 0.000711 0.000002 0.000000 0.000000
0.104705 0.034190 0.000683 0.000002 0.000000 0.000000
0.106645 0.033830 0.000827 0.000002 1.367687 0.000003
0.108138 0.033965 0.000670 0.000002 0.000000 0.000000
0.109539 0.034034 0.000731 0.000002 0.000000 0.000000
0.110963 0.034166 0.000627 0.000002 0.000000 0.000000
0.112264 0.034042 0.000680 0.000002 0.000000 0.000000
0.113640 0.033889 0.000702 0.000002 0.000000 0.000000
0.115073 0.034502 0.000767 0.000002 0.000000 0.000000
0.116594 0.034650 0.000596 0.000002 22.471238 0.000041
0.118010 0.034459 0.000829 0.000002 308.687452 0.000635
0.119641 0.034371 0.000743 0.000002 0.000000 0.000000
0.121195 0.034128 0.000615 0.000002 0.000000 0.000000
0.122519 0.034199 0.000696 0.000002 103.535407 0.000164
0.123904 0.034168 0.000686 0.000002 0.021638 0.000000
0.125328 0.034293 0.000744 0.000002 0.000000 0.000000
0.126855 0.034491 0.000790 0.000002 172.417052 0.000349
0.128399 0.034574 0.000747 0.000002 0.007355 0.000000
0.129697 0.034471 0.000555 0.000002 0.000000 0.000000
0.130677 0.035064 0.000590 0.000001 0.000000 0.000000
0.131799 0.034511 0.000660 0.000002 8.969439 0.000015
0.132964 0.035155 0.000672 0.000002 0.000000 0.000000
0.134394 0.034937 0.000769 0.000002 0.000000 0.000000
0.135997 0.034588 0.000665 0.000002 0.000000 0.000000
0.137413 0.034287 0.000777 0.000002 0.000000 0.000000
0.138885 0.034743 0.000760 0.000002 0.000000 0.000000
0.140408 0.034363 0.000810 0.000002 0.000000 0.000000
0.141928 0.034542 0.000713 0.000002 26.978503 0.000052
0.143388 0.034411 0.000752 0.000002 12.771760 0.000026
0.144767 0.033783 0.000764 0.000002 30.865864 0.000064
0.146211 0.033722 0.000671 0.000002 74.897521 0.000135
0.147725 0.033770 0.000652 0.000002 0.000000 0.000000
0.149106 0.033802 0.000725 0.000002 74.408618 0.000130
0.150575 0.033842 0.000745 0.000002 0.000000 0.000000
0.151966 0.033820 0.000646 0.000002 0.000000 0.000000
0.153366 0.033774 0.000755 0.000002 0.000000 0.000000
0.154908 0.033743 0.000788 0.000002 0.000000 0.000000
0.156391 0.033652 0.000696 0.000002 0.000000 0.000000
0.157782 0.033778 0.000692 0.000002 0.000000 0.000000
0.159676 0.033903 0.000704 0.000002 0.000000 0.000000
0.161133 0.034071 0.000757 0.000002 12.023075 0.000022
0.162518 0.033951 0.000629 0.000002 60.754151 0.000094
0.164003 0.034064 0.000686 0.000002 41.054545 0.000073
0.165428 0.034441 0.000788 0.000002 0.000000 0.000000
0.167209 0.034428 0.000689 0.000002 19.224372 0.000039
0.168624 0.034081 0.000765 0.000002 34.286632 0.000067
0.170084 0.033985 0.000691 0.000002 57.848636 0.000101
0.171183 0.034888 0.000716 0.000002 13.310003 0.000023
0.172509 0.034473 0.000674 0.000002 0.000000 0.000000
0.173929 0.034648 0.000754 0.000002 0.000000 0.000000
0.175499 0.034671 0.000811 0.000002 0.000000 0.000000
0.176938 0.034530 0.000635 0.000002 3.881221 0.000008
0.178612 0.034294 0.000689 0.000002 0.000000 0.000000
0.179886 0.034195 0.000583 0.000002 0.000000 0.000000
0.181132 0.033574 0.000809 0.000002 0.000000 0.000000
0.182711 0.033613 0.000769 0.000002 64.216062 0.000134
0.184147 0.033939 0.000697 0.000002 0.000000 0.000000
0.185513 0.033592 0.000697 0.000002 28.359539 0.000047
0.186466 0.034645 0.000723 0.000002 71.042612 0.000130
0.187997 0.034287 0.000767 0.000002 0.000000 0.000000
0.189814 0.034820 0.000814 0.000002 1.732500 0.000004
0.191306 0.034426 0.000729 0.000002 3.046645 0.000006
0.192712 0.034355 0.000677 0.000002 30.300451 0.000056
0.193854 0.035038 0.000653 0.000002 35.902692 0.000072
0.195191 0.034718 0.000722 0.000002 0.375094 0.000001
0.197263 0.034457 0.000701 0.000002 82.978904 0.000165
0.198178 0.033460 0.000651 0.000002 0.000000 0.000000
0.199600 0.033557 0.000767 0.000002 81.728025 0.000158
0.201067 0.033428 0.000706 0.000002 22.353097 0.000041
0.202336 0.033124 0.000599 0.000002 0.000000 0.000000
0.203607 0.033550 0.000740 0.000002 38.094146 0.000073
0.205246 0.033706 0.000832 0.000002 116.673402 0.000249
0.206679 0.033263 0.000668 0.000002 23.205871 0.000041
0.208115 0.033324 0.000770 0.000002 127.131467 0.000270
0.209649 0.033318 0.000755 0.000002 56.392468 0.000114
0.211092 0.033338 0.000667 0.000002 24.485525 0.000045
0.212555 0.033704 0.000833 0.000002 35.752748 0.000078
0.214101 0.033748 0.000653 0.000002 1.876938 0.000003
0.215145 0.033250 0.000503 0.000002 0.000000 0.000000
0.216189 0.033977 0.000764 0.000002 1.726875 0.000003
0.217705 0.034203 0.000769 0.000002 0.000000 0.000000
0.218905 0.033479 0.000629 0.000002 8.308615 0.000015
0.220841 0.033770 0.000690 0.000002 0.000000 0.000000
0.222397 0.033495 0.000776 0.000002 0.000000 0.000000
0.224005 0.033408 0.000693 0.000002 0.000000 0.000000
0.000650 0.035804 0.000626 0.000002 366.342449 0.000700
0.001905 0.035305 0.000658 0.000002 22.357078 0.000038
0.003301 0.035780 0.000702 0.000002 0.000000 0.000000
0.005806 0.034385 0.000626 0.000002 23.280841 0.000045
0.006696 0.035270 0.000629 0.000002 2.901629 0.000005
0.007861 0.035000 0.000567 0.000001 3.799997 0.000006
0.008928 0.035616 0.000664 0.000002 135.711761 0.000217
0.010152 0.034994 0.000709 0.000002 0.000000 0.000000
0.011350 0.035802 0.000735 0.000002 -0.151727 -0.000000
0.012784 0.035858 0.000699 0.000002 28.858320 0.000056
0.014167 0.035478 0.000733 0.000002 0.000000 0.000000
0.015253 0.036597 0.000823 0.000002 21.205849 0.000043
0.016740 0.036259 0.000702 0.000002 0.000000 0.000000
0.018130 0.035974 0.000714 0.000002 31.145639 0.000056
0.019603 0.035725 0.000775 0.000002 0.000000 0.000000
0.021087 0.035669 0.000707 0.000002 0.000000 0.000000
0.022411 0.035555 0.000622 0.000002 0.000000 0.000000
0.024480 0.035531 0.000829 0.000002 0.000000 0.000000
0.025903 0.035984 0.000665 0.000002 0.000000 0.000000
0.027271 0.036281 0.000730 0.000002 66.527780 0.000113
0.028625 0.036508 0.000640 0.000002 23.158646 0.000037
0.029838 0.036468 0.000571 0.000001 0.000000 0.000000
0.030988 0.035892 0.000715 0.000002 0.000000 0.000000
0.032454 0.035552 0.000765 0.000002 0.000000 0.000000
0.033687 0.034940 0.000597 0.000002 0.000000 0.000000
0.035244 0.034793 0.000717 0.000002 107.988723 0.000192
0.035911 0.036076 0.000729 0.000002 0.000000 0.000000
0.038093 0.035570 0.000781 0.000002 0.000000 0.000000
0.039190 0.034631 0.000664 0.000002 -0.294307 -0.000001
0.040641 0.034750 0.000792 0.000002 3.345036 0.000007
0.042189 0.035125 0.000800 0.000002 0.261174 0.000001
0.043559 0.034542 0.000689 0.000002 16.856323 0.000032
0.044939 0.034323 0.000708 0.000002 128.029083 0.000238
0.046289 0.034966 0.000718 0.000002 0.000000 0.000000
0.048475 0.034758 0.000732 0.000002 54.328304 0.000103
0.049725 0.034299 0.000600 0.000002 18.726320 0.000031
0.050911 0.034918 0.000738 0.000002 12.630135 0.000026
0.052311 0.034473 0.000732 0.000002 3.157102 0.000006
0.053716 0.034863 0.000727 0.000002 0.000000 0.000000
0.055165 0.034768 0.000725 0.000002 0.000000 0.000000
0.056610 0.034579 0.000728 0.000002 0.000000 0.000000
0.058023 0.034522 0.000687 0.000002 0.000000 0.000000
0.059433 0.034521 0.000723 0.000002 0.000000 0.000000
0.060888 0.034594 0.000732 0.000002 0.000000 0.000000
0.062336 0.034715 0.000719 0.000002 0.000000 0.000000
0.064370 0.035338 0.000662 0.000002 0.000000 0.000000
0.065589 0.034582 0.000772 0.000002 0.000000 0.000000
0.066977 0.034762 0.000627 0.000002 114.567513 0.000205
0.068285 0.035097 0.000722 0.000002 0.755311 0.000001
0.069798 0.034837 0.000813 0.000002 0.000000 0.000000
0.071190 0.035368 0.000675 0.000002 0.000000 0.000000
0.072416 0.034652 0.000654 0.000002 0.000000 0.000000
0.073733 0.035195 0.000726 0.000002 0.000000 0.000000
0.075226 0.035667 0.000704 0.000002 0.000000 0.000000
0.076699 0.035992 0.000796 0.000002 0.000000 0.000000
0.077956 0.035174 0.000695 0.000002 18.315346 0.000035
0.079316 0.035548 0.000715 0.000002 0.000000 0.000000
0.080723 0.035769 0.000709 0.000002 0.000000 0.000000
0.082092 0.035720 0.000659 0.000002 0.000000 0.000000
0.083218 0.035233 0.000566 0.000002 0.000000 0.000000
0.084351 0.035376 0.000576 0.000002 88.646170 0.000139
0.085580 0.035169 0.000670 0.000002 23.932400 0.000041
0.088040 0.035702 0.000740 0.000002 0.000000 0.000000
0.089532 0.035387 0.000758 0.000002 0.000000 0.000000
0.091233 0.035088 0.000855 0.000002 0.000000 0.000000
0.092642 0.035299 0.000561 0.000002 90.936250 0.000143
0.093832 0.035098 0.000639 0.000001 0.000000 0.000000
0.095008 0.034507 0.000673 0.000002 0.000000 0.000000
0.096251 0.035318 0.000810 0.000002 14.400040 0.000029
0.097664 0.035312 0.000602 0.000002 0.000000 0.000000
0.098936 0.034751 0.000787 0.000002 6.769831 0.000014
0.100460 0.035173 0.000794 0.000002 0.000000 0.000000
0.101939 0.034938 0.000676 0.000002 0.000000 0.000000
0.102913 0.035979 0.000714 0.000002 14.455306 0.000029
0.104415 0.035608 0.000701 0.000002 0.000000 0.000000
0.105771 0.035116 0.000728 0.000002 9.562556 0.000020
0.107429 0.035068 0.000639 0.000002 0.000000 0.000000
0.108777 0.035268 0.000718 0.000002 0.000000 0.000000
0.110243 0.035298 0.000713 0.000002 0.000000 0.000000
0.111643 0.035294 0.000687 0.000002 0.000000 0.000000
0.113068 0.035219 0.000735 0.000002 0.000000 0.000000
0.114397 0.035846 0.000734 0.000002 0.000000 0.000000
0.115901 0.035818 0.000763 0.000002 0.000000 0.000000
0.117380 0.035870 0.000717 0.000002 210.950504 0.000408
0.118843 0.035808 0.000748 0.000002 0.000000 0.000000
0.120410 0.035732 0.000820 0.000002 9.291028 0.000020
0.121771 0.035277 0.000616 0.000002 54.441663 0.000092
0.123116 0.035385 0.000631 0.000002 0.000000 0.000000
0.124467 0.035482 0.000722 0.000002 0.000000 0.000000
0.125894 0.035638 0.000706 0.000002 0.000000 0.000000
0.127598 0.035809 0.000723 0.000002 0.000000 0.000000
0.129138 0.035827 0.000701 0.000002 0.000000 0.000000
0.130343 0.036144 0.000541 0.000001 0.000000 0.000000
0.131775 0.035949 0.000756 0.000002 0.000000 0.000000
0.133404 0.036477 0.000722 0.000002 0.000000 0.000000
0.134736 0.036283 0.000620 0.000002 0.000000 0.000000
0.136048 0.035979 0.000727 0.000002 0.000000 0.000000
0.137401 0.035715 0.000651 0.000002 0.000000 0.000000
0.138628 0.036121 0.000641 0.000002 0.000000 0.000000
0.139852 0.035734 0.000621 0.000002 0.000000 0.000000
0.141119 0.035625 0.000638 0.000002 0.000000 0.000000
0.142708 0.035671 0.000658 0.000002 -0.014180 -0.000000
0.144013 0.035663 0.000647 0.000002 3.878488 0.000007
0.145310 0.035181 0.000736 0.000002 10.917035 0.000022
0.146948 0.034961 0.000770 0.000002 0.000000 0.000000
0.148371 0.034969 0.000654 0.000002 0.097784 0.000000
0.149780 0.034971 0.000624 0.000002 0.000000 0.000000
0.151179 0.035113 0.000660 0.000002 0.000000 0.000000
0.152594 0.035072 0.000755 0.000002 0.000000 0.000000
0.154120 0.035096 0.000766 0.000002 0.000000 0.000000
0.155618 0.035098 0.000732 0.000002 0.000000 0.000000
0.157133 0.035109 0.000784 0.000002 0.000000 0.000000
0.158686 0.034999 0.000773 0.000002 0.000000 0.000000
0.160202 0.035271 0.000762 0.000002 0.000000 0.000000
0.162000 0.035090 0.000580 0.000001 1.366233 0.000002
0.163140 0.034972 0.000567 0.000001 11.445190 0.000016
0.164320 0.035453 0.000707 0.000002 11.966761 0.000023
0.165685 0.036060 0.000787 0.000002 17.715029 0.000037
0.167060 0.035735 0.000627 0.000002 0.000000 0.000000
0.168404 0.035559 0.000729 0.000002 0.000000 0.000000
0.169830 0.035359 0.000707 0.000002 0.000000 0.000000
0.171003 0.036312 0.000703 0.000002 0.000000 0.000000
0.172206 0.035754 0.000622 0.000002 25.898899 0.000044
0.173624 0.035982 0.000614 0.000002 0.000000 0.000000
0.174918 0.036030 0.000668 0.000002 0.000000 0.000000
0.176408 0.035948 0.000740 0.000002 0.000000 0.000000
0.177877 0.035573 0.000768 0.000002 0.000000 0.000000
0.179452 0.035527 0.000803 0.000002 0.000000 0.000000
0.180857 0.035043 0.000676 0.000002 0.000000 0.000000
0.182220 0.034981 0.000685 0.000002 74.607282 0.000148
0.183817 0.035377 0.000770 0.000002 0.000000 0.000000
0.185113 0.034843 0.000617 0.000002 0.000000 0.000000
0.185850 0.035924 0.000691 0.000002 0.000000 0.000000
0.187294 0.035865 0.000752 0.000002 75.937734 0.000142
0.188590 0.035511 0.000592 0.000002 0.000000 0.000000
0.190695 0.036108 0.000747 0.000002 0.000000 0.000000
0.192128 0.035661 0.000753 0.000002 0.000000 0.000000
0.193471 0.036439 0.000800 0.000002 0.000000 0.000000
0.194936 0.036155 0.000688 0.000002 0.000000 0.000000
0.196321 0.035690 0.000767 0.000002 0.000000 0.000000
0.197649 0.035658 0.000561 0.000002 17.652973 0.000027
0.198679 0.034794 0.000754 0.000002 0.000000 0.000000
0.200049 0.034861 0.000613 0.000002 39.707209 0.000069
0.201285 0.034744 0.000629 0.000002 24.502283 0.000041
0.202569 0.034519 0.000675 0.000002 0.000000 0.000000
0.203833 0.034920 0.000648 0.000002 11.998720 0.000021
0.205188 0.035295 0.000758 0.000002 5.164050 0.000010
0.206503 0.034634 0.000714 0.000002 6.290462 0.000012
0.207973 0.034851 0.000764 0.000002 23.777814 0.000047
0.209442 0.034764 0.000706 0.000002 0.000000 0.000000
0.210720 0.034540 0.000591 0.000002 0.000000 0.000000
0.211956 0.035272 0.000846 0.000002 0.000000 0.000000
0.213456 0.034868 0.000639 0.000002 0.000000 0.000000
0.214964 0.034832 0.000730 0.000002 0.000000 0.000000
0.216719 0.035403 0.000757 0.000002 0.000000 0.000000
0.218071 0.035550 0.000603 0.000002 0.000000 0.000000
0.219002 0.034737 0.000633 0.000002 0.000000 0.000000
0.220234 0.034923 0.000613 0.000002 0.000000 0.000000
0.221692 0.034896 0.000705 0.000002 24.797135 0.000046
0.223089 0.034825 0.000665 0.000002 0.000000 0.000000
0.000853 0.037257 0.000842 0.000002 342.530649 0.000786
0.002203 0.036588 0.000659 0.000002 0.000000 0.000000
0.004685 0.036187 0.000736 0.000002 312.860226 0.000686
0.006179 0.036624 0.000820 0.000002 0.000000 0.000000
0.007666 0.036264 0.000711 0.000002 21.151623 0.000037
0.008878 0.036972 0.000693 0.000002 89.647847 0.000163
0.010068 0.036350 0.000650 0.000002 0.000000 0.000000
0.010986 0.037289 0.000662 0.000002 0.000000 0.000000
0.012316 0.037153 0.000675 0.000002 266.599154 0.000468
0.013758 0.036848 0.000689 0.000002 0.000000 0.000000
0.014594 0.037908 0.000643 0.000002 0.000000 0.000000
0.016378 0.037589 0.000677 0.000002 0.000000 0.000000
0.017694 0.037276 0.000638 0.000002 0.000000 0.000000
0.019008 0.037037 0.000665 0.000002 33.955362 0.000054
0.020434 0.036970 0.000720 0.000002 0.000000 0.000000
0.021941 0.036781 0.000687 0.000002 0.000000 0.000000
0.023316 0.036483 0.000674 0.000002 0.000000 0.000000
0.024936 0.036963 0.000671 0.000002 0.000000 0.000000
0.026298 0.037408 0.000759 0.000002 35.715543 0.000064
0.027819 0.037545 0.000648 0.000002 0.000000 0.000000
0.029342 0.037630 0.000691 0.000002 0.000000 0.000000
0.030655 0.037360 0.000637 0.000002 0.000000 0.000000
0.031959 0.036961 0.000719 0.000002 0.000000 0.000000
0.033382 0.036702 0.000713 0.000002 0.000000 0.000000
0.034463 0.035897 0.000635 0.000002 0.000000 0.000000
0.036115 0.037394 0.000605 0.000001 0.000000 0.000000
0.037171 0.036686 0.000666 0.000002 0.000000 0.000000
0.038593 0.037057 0.000788 0.000002 0.000000 0.000000
0.039614 0.035964 0.000707 0.000002 0.000000 0.000000
0.041070 0.036265 0.000780 0.000002 0.000000 0.000000
0.042457 0.036523 0.000623 0.000002 0.000000 0.000000
0.043758 0.035997 0.000780 0.000002 1.814008 0.000004
0.045126 0.035647 0.000630 0.000002 0.000000 0.000000
0.047460 0.035780 0.000709 0.000002 0.000000 0.000000
0.048552 0.036549 0.000627 0.000002 0.000000 0.000000
0.049512 0.035689 0.000661 0.000002 1.215140 0.000002
0.050726 0.036381 0.000736 0.000002 0.538022 0.000001
0.052050 0.035865 0.000685 0.000002 0.000000 0.000000
0.053374 0.036241 0.000692 0.000002 0.000000 0.000000
0.054707 0.036066 0.000652 0.000002 0.000000 0.000000
0.056041 0.035884 0.000694 0.000002 2.210650 0.000004
0.057367 0.035722 0.000641 0.000002 0.000000 0.000000
0.058697 0.035728 0.000688 0.000002 45.999752 0.000083
0.060075 0.035706 0.000624 0.000002 0.000000 0.000000
0.061436 0.036259 0.000835 0.000002 0.000000 0.000000
0.063080 0.036060 0.000817 0.000002 0.000000 0.000000
0.065439 0.036369 0.000824 0.000002 2.543648 0.000006
0.067006 0.036148 0.000759 0.000002 3.364385 0.000007
0.068375 0.036462 0.000645 0.000002 0.019717 0.000000
0.069796 0.036427 0.000776 0.000002 3.186896 0.000006
0.071161 0.036690 0.000615 0.000002 0.000000 0.000000
0.072475 0.036117 0.000813 0.000002 0.000000 0.000000
0.074108 0.036674 0.000796 0.000002 0.000000 0.000000
0.075605 0.037093 0.000756 0.000002 0.000000 0.000000
0.077063 0.037525 0.000744 0.000002 0.015685 0.000000
0.078150 0.036562 0.000707 0.000002 0.000000 0.000000
0.079496 0.036950 0.000694 0.000002 0.000000 0.000000
0.080876 0.037175 0.000705 0.000002 0.773673 0.000001
0.082335 0.037114 0.000755 0.000002 13.558613 0.000027
0.083805 0.036630 0.000793 0.000002 0.000000 0.000000
0.085325 0.036542 0.000727 0.000002 0.000000 0.000000
0.086654 0.036053 0.000689 0.000002 0.000000 0.000000
0.089035 0.036805 0.000744 0.000002 0.000000 0.000000
0.090526 0.036544 0.000754 0.000002 0.000000 0.000000
0.092052 0.036485 0.000764 0.000002 0.000000 0.000000
0.093490 0.036386 0.000673 0.000002 0.000000 0.000000
0.094880 0.035795 0.000620 0.000002 0.000000 0.000000
0.095738 0.036798 0.000700 0.000002 0.000000 0.000000
0.097165 0.036568 0.000738 0.000002 97.186006 0.000181
0.098669 0.036308 0.000788 0.000002 0.000000 0.000000
0.100131 0.036642 0.000711 0.000002 0.000000 0.000000
0.101505 0.036258 0.000712 0.000002 0.000000 0.000000
0.103907 0.037003 0.000713 0.000002 0.000000 0.000000
0.105254 0.036692 0.000670 0.000002 0.000000 0.000000
0.106718 0.036355 0.000832 0.000002 0.000000 0.000000
0.108209 0.036641 0.000686 0.000002 0.000000 0.000000
0.109616 0.036588 0.000721 0.000002 0.000000 0.000000
0.111003 0.036499 0.000669 0.000002 0.000000 0.000000
0.112409 0.036535 0.000737 0.000002 8.118711 0.000017
0.113592 0.037464 0.000767 0.000002 0.774594 0.000002
0.115144 0.037195 0.000808 0.000002 0.000000 0.000000
0.116665 0.037112 0.000716 0.000002 0.000000 0.000000
0.118201 0.037243 0.000824 0.000002 1.093480 0.000002
0.119636 0.037023 0.000628 0.000002 0.000000 0.000000
0.121051 0.037166 0.000750 0.000002 0.000000 0.000000
0.122331 0.036472 0.000703 0.000002 17.611344 0.000031
0.123679 0.036597 0.000642 0.000002 0.000000 0.000000
0.125092 0.036892 0.000782 0.000002 0.000000 0.000000
0.126618 0.036899 0.000740 0.000002 0.000000 0.000000
0.128091 0.037194 0.000747 0.000002 0.000000 0.000000
0.129584 0.037199 0.000742 0.000002 0.000000 0.000000
0.131009 0.037174 0.000679 0.000002 0.000000 0.000000
0.132344 0.037377 0.000669 0.000002 0.000000 0.000000
0.134326 0.037454 0.000621 0.000002 0.000000 0.000000
0.135696 0.037414 0.000750 0.000002 81.361779 0.000150
0.137064 0.037003 0.000679 0.000002 0.000000 0.000000
0.138299 0.037323 0.000595 0.000001 0.000000 0.000000
0.139567 0.037073 0.000695 0.000002 0.000000 0.000000
0.140900 0.036895 0.000650 0.000002 0.003560 0.000000
0.142213 0.036896 0.000663 0.000002 0.000000 0.000000
0.143516 0.036849 0.000623 0.000002 63.834268 0.000107
0.144923 0.036718 0.000745 0.000002 0.000000 0.000000
0.146255 0.036228 0.000674 0.000002 0.000000 0.000000
0.147732 0.036334 0.000806 0.000002 0.000000 0.000000
0.149098 0.035957 0.000573 0.000002 0.000000 0.000000
0.150331 0.036144 0.000672 0.000002 0.000000 0.000000
0.151846 0.036336 0.000714 0.000002 26.961613 0.000049
0.153317 0.036335 0.000699 0.000002 0.000000 0.000000
0.154879 0.036303 0.000660 0.000002 0.000000 0.000000
0.156242 0.036324 0.000643 0.000002 0.000000 0.000000
0.157518 0.036473 0.000633 0.000002 28.367914 0.000050
0.158820 0.036435 0.000669 0.000002 0.000000 0.000000
0.160128 0.036697 0.000665 0.000002 0.000000 0.000000
0.161334 0.036139 0.000663 0.000002 0.000000 0.000000
0.162703 0.036166 0.000705 0.000002 0.000000 0.000000
0.164048 0.037007 0.000849 0.000002 0.000000 0.000000
0.165457 0.037459 0.000628 0.000002 0.000000 0.000000
0.166822 0.037131 0.000775 0.000002 356.056808 0.000668
0.168301 0.036995 0.000710 0.000002 22.580818 0.000041
0.169678 0.036748 0.000690 0.000002 0.000000 0.000000
0.171491 0.037508 0.000587 0.000002 4.669213 0.000007
0.172738 0.037020 0.000751 0.000002 0.000000 0.000000
0.174172 0.037160 0.000685 0.000002 107.539991 0.000175
0.175668 0.037215 0.000726 0.000002 0.000000 0.000000
0.177197 0.037109 0.000663 0.000002 0.000000 0.000000
0.178634 0.036928 0.000784 0.000002 0.000000 0.000000
0.180052 0.036834 0.000636 0.000002 0.000000 0.000000
0.181372 0.036379 0.000744 0.000002 0.000000 0.000000
0.182700 0.036154 0.000583 0.000002 81.124756 0.000127
0.183779 0.036950 0.000752 0.000002 0.000000 0.000000
0.185171 0.037075 0.000645 0.000002 0.000000 0.000000
0.186569 0.037129 0.000705 0.000002 0.000000 0.000000
0.188016 0.037100 0.000679 0.000002 9.668677 0.000018
0.189317 0.036598 0.000716 0.000002 0.000000 0.000000
0.190383 0.037507 0.000686 0.000002 0.000000 0.000000
0.191855 0.037196 0.000806 0.000002 0.000000 0.000000
0.193113 0.038073 0.000725 0.000002 0.000000 0.000000
0.194493 0.037572 0.000725 0.000002 1.768724 0.000003
0.195888 0.037235 0.000710 0.000002 3.850934 0.000007
0.197223 0.036829 0.000686 0.000002 34.370933 0.000057
0.198772 0.036258 0.000713 0.000002 0.722131 0.000001
0.200143 0.036134 0.000663 0.000002 0.336334 0.000001
0.201473 0.036031 0.000672 0.000002 -0.137179 -0.000000
0.202861 0.035887 0.000723 0.000002 -0.801359 -0.000001
0.204151 0.036163 0.000595 0.000002 1.583121 0.000003
0.205327 0.036805 0.000745 0.000002 0.000000 0.000000
0.206390 0.035957 0.000614 0.000002 0.000000 0.000000
0.207592 0.036168 0.000607 0.000002 0.000000 0.000000
0.208827 0.035960 0.000635 0.000002 0.000000 0.000000
0.210462 0.035884 0.000764 0.000002 0.000000 0.000000
0.211911 0.036869 0.000750 0.000002 0.000000 0.000000
0.213210 0.036188 0.000704 0.000002 0.000000 0.000000
0.214616 0.036201 0.000682 0.000002 0.000000 0.000000
0.215917 0.036556 0.000647 0.000002 0.000000 0.000000
0.217431 0.036858 0.000851 0.000002 0.000000 0.000000
0.219313 0.036157 0.000774 0.000002 0.000000 0.000000
0.220882 0.036155 0.000778 0.000002 0.000000 0.000000
0.222490 0.036053 0.000701 0.000002 0.000000 0.000000
0.224290 0.035845 0.000705 0.000001 0.000000 0.000000
0.000730 0.038816 0.000721 0.000002 213.566121 0.000460
0.002291 0.038054 0.000802 0.000002 174.103038 0.000393
0.003604 0.037215 0.000756 0.000002 0.000000 0.000000
0.005011 0.037603 0.000702 0.000002 0.000000 0.000000
0.006309 0.038130 0.000691 0.000002 34.459669 0.000062
0.007628 0.037674 0.000700 0.000002 0.000000 0.000000
0.009056 0.038326 0.000672 0.000002 45.165748 0.000087
0.010392 0.038486 0.000673 0.000002 0.593192 0.000001
0.011761 0.038410 0.000699 0.000002 0.000000 0.000000
0.013266 0.038152 0.000704 0.000002 0.000000 0.000000
0.014218 0.039145 0.000645 0.000002 0.000000 0.000000
0.015639 0.038748 0.000696 0.000002 0.000000 0.000000
0.017284 0.038592 0.000674 0.000002 0.000000 0.000000
0.018516 0.038219 0.000610 0.000001 0.000000 0.000000
0.019722 0.038085 0.000603 0.000001 0.000000 0.000000
0.021817 0.038092 0.000628 0.000002 0.000000 0.000000
0.023027 0.037751 0.000627 0.000002 0.000000 0.000000
0.024245 0.038058 0.000624 0.000002 0.000000 0.000000
0.025403 0.038412 0.000586 0.000002 34.868067 0.000057
0.027061 0.038577 0.000632 0.000002 0.000000 0.000000
0.028468 0.038796 0.000762 0.000002 0.000000 0.000000
0.030213 0.038641 0.000643 0.000002 0.000000 0.000000
0.031536 0.038371 0.000703 0.000002 1.956821 0.000003
0.032952 0.038090 0.000740 0.000002 2.706713 0.000005
0.034361 0.038305 0.000685 0.000002 0.231732 0.000000
0.034905 0.037095 0.000641 0.000002 0.000000 0.000000
0.035582 0.038408 0.000540 0.000001 0.000000 0.000000
0.037113 0.038120 0.000629 0.000002 2.193909 0.000004
0.038349 0.038484 0.000660 0.000002 0.000000 0.000000
0.040120 0.037571 0.000824 0.000002 0.000000 0.000000
0.041692 0.037663 0.000749 0.000002 0.000000 0.000000
0.043449 0.037554 0.000807 0.000002 0.000000 0.000000
0.044898 0.036989 0.000731 0.000002 46.434741 0.000084
0.046212 0.036365 0.000668 0.000002 0.000000 0.000000
0.047371 0.037187 0.000701 0.000002 13.651632 0.000022
0.048510 0.037811 0.000595 0.000002 24.622395 0.000038
0.049632 0.037241 0.000655 0.000002 30.925387 0.000049
0.050768 0.037860 0.000639 0.000002 51.796497 0.000086
0.051844 0.037167 0.000630 0.000002 0.945418 0.000001
0.053017 0.037460 0.000579 0.000002 0.593222 0.000001
0.054222 0.037270 0.000641 0.000001 0.125471 0.000000
0.055539 0.037164 0.000680 0.000002 0.337793 0.000001
0.056924 0.037013 0.000712 0.000002 0.000000 0.000000
0.058376 0.037123 0.000743 0.000002 0.000000 0.000000
0.059975 0.037184 0.000857 0.000002 0.000000 0.000000
0.061358 0.037719 0.000626 0.000002 45.527137 0.000078
0.062684 0.037538 0.000712 0.000002 0.000000 0.000000
0.064122 0.037241 0.000756 0.000002 0.000000 0.000000
0.066163 0.037637 0.000635 0.000002 0.000000 0.000000
0.067525 0.037544 0.000730 0.000002 0.000000 0.000000
0.068960 0.037686 0.000710 0.000002 0.000000 0.000000
0.070388 0.037802 0.000721 0.000002 0.000000 0.000000
0.071702 0.037773 0.000593 0.000002 0.000000 0.000000
0.072983 0.037650 0.000693 0.000002 0.000000 0.000000
0.074464 0.038239 0.000808 0.000002 0.000000 0.000000
0.075986 0.038549 0.000742 0.000002 0.000000 0.000000
0.077676 0.038853 0.000718 0.000002 0.000000 0.000000
0.078546 0.037850 0.000609 0.000002 0.000000 0.000000
0.079958 0.038391 0.000812 0.000002 0.000000 0.000000
0.081531 0.038390 0.000674 0.000002 0.000000 0.000000
0.083433 0.038061 0.000686 0.000002 0.774959 0.000001
0.084796 0.037859 0.000692 0.000002 0.000000 0.000000
0.086373 0.037309 0.000561 0.000002 5.466067 0.000010
0.087617 0.037095 0.000701 0.000002 0.000000 0.000000
0.088553 0.038201 0.000728 0.000002 0.000000 0.000000
0.089994 0.037937 0.000737 0.000002 0.000000 0.000000
0.091469 0.037872 0.000739 0.000002 0.000000 0.000000
0.092959 0.037699 0.000740 0.000002 0.000000 0.000000
0.094438 0.037432 0.000736 0.000002 0.000000 0.000000
0.096633 0.038068 0.000853 0.000002 0.000000 0.000000
0.098070 0.037597 0.000633 0.000002 0.000000 0.000000
0.099364 0.037798 0.000674 0.000002 0.000000 0.000000
0.100689 0.037875 0.000641 0.000002 0.000000 0.000000
0.101935 0.037547 0.000647 0.000002 0.000000 0.000000
0.103128 0.038190 0.000706 0.000002 0.000000 0.000000
0.104458 0.038229 0.000624 0.000002 0.000000 0.000000
0.105806 0.037993 0.000743 0.000002 -0.215931 -0.000000
0.107351 0.037869 0.000807 0.000002 0.000000 0.000000
0.108924 0.037906 0.000765 0.000002 0.000000 0.000000
0.110462 0.037852 0.000772 0.000002 0.000000 0.000000
0.112089 0.038111 0.000869 0.000002 0.000000 0.000000
0.113412 0.038863 0.000642 0.000002 9.756454 0.000018
0.114604 0.038501 0.000604 0.000002 0.000000 0.000000
0.116060 0.038414 0.000716 0.000002 0.000000 0.000000
0.117526 0.038680 0.000756 0.000002 0.000000 0.000000
0.119212 0.038261 0.000610 0.000002 0.000000 0.000000
0.120495 0.038501 0.000695 0.000002 0.000000 0.000000
0.121812 0.038321 0.000632 0.000002 0.040777 0.000000
0.122954 0.037695 0.000670 0.000002 0.000000 0.000000
0.124296 0.038231 0.000775 0.000002 0.000000 0.000000
0.125881 0.038254 0.000784 0.000002 0.000000 0.000000
0.127317 0.038362 0.000654 0.000002 0.000000 0.000000
0.128836 0.038484 0.000743 0.000002 0.000000 0.000000
0.130194 0.038430 0.000603 0.000002 0.000000 0.000000
0.131502 0.038469 0.000702 0.000002 0.000000 0.000000
0.133337 0.038478 0.000802 0.000002 0.000000 0.000000
0.134831 0.038643 0.000658 0.000002 0.000000 0.000000
0.136154 0.038757 0.000669 0.000002 0.000000 0.000000
0.137461 0.038332 0.000704 0.000002 0.000000 0.000000
0.138754 0.038386 0.000546 0.000002 0.000000 0.000000
0.140126 0.038474 0.000810 0.000002 0.000000 0.000000
0.141539 0.038046 0.000666 0.000002 0.000000 0.000000
0.142953 0.038100 0.000749 0.000002 0.000000 0.000000
0.144430 0.038106 0.000727 0.000002 0.000000 0.000000
0.145721 0.038236 0.000571 0.000002 93.121770 0.000158
0.146742 0.037501 0.000687 0.000002 0.000000 0.000000
0.148140 0.037842 0.000750 0.000002 6.031669 0.000012
0.149436 0.037186 0.000702 0.000002 0.000000 0.000000
0.150885 0.037483 0.000776 0.000002 0.000000 0.000000
0.152594 0.037459 0.000635 0.000002 0.000000 0.000000
0.154005 0.037600 0.000739 0.000002 0.000000 0.000000
0.155549 0.037606 0.000804 0.000002 0.468699 0.000001
0.157072 0.037757 0.000726 0.000002 87.030856 0.000156
0.158441 0.037694 0.000645 0.000002 4.023279 0.000007
0.159842 0.038172 0.000836 0.000002 0.000000 0.000000
0.161181 0.037503 0.000661 0.000002 0.000000 0.000000
0.162543 0.037567 0.000702 0.000002 0.000000 0.000000
0.163568 0.038390 0.000612 0.000002 0.000000 0.000000
0.164873 0.038680 0.000725 0.000002 0.000000 0.000000
0.166351 0.038590 0.000756 0.000002 0.000000 0.000000
0.167730 0.038247 0.000663 0.000002 0.000000 0.000000
0.169003 0.038112 0.000610 0.000002 0.373444 0.000001
0.170301 0.037984 0.000694 0.000002 6.653455 0.000012
0.172347 0.038259 0.000547 0.000001 0.278430 0.000000
0.173543 0.038339 0.000651 0.000002 0.000000 0.000000
0.174842 0.038294 0.000632 0.000002 0.000000 0.000000
0.176566 0.038274 0.000662 0.000002 0.000000 0.000000
0.177978 0.038294 0.000729 0.000002 0.000000 0.000000
0.179488 0.038185 0.000734 0.000002 0.000000 0.000000
0.181032 0.037903 0.000815 0.000002 0.000000 0.000000
0.182409 0.037366 0.000664 0.000002 0.000000 0.000000
0.183088 0.038645 0.000782 0.000002 0.236659 0.000000
0.184627 0.038392 0.000777 0.000002 0.024044 0.000000
0.186082 0.038426 0.000679 0.000002 0.239029 0.000000
0.187433 0.038325 0.000675 0.000002 0.000000 0.000000
0.189072 0.038093 0.000747 0.000002 0.000000 0.000000
0.190362 0.038788 0.000592 0.000002 0.000000 0.000000
0.191754 0.038760 0.000758 0.000002 0.000000 0.000000
0.193046 0.039557 0.000754 0.000002 0.000000 0.000000
0.194456 0.039038 0.000736 0.000002 0.000000 0.000000
0.195885 0.038615 0.000622 0.000002 0.000000 0.000000
0.197074 0.038147 0.000640 0.000002 0.000000 0.000000
0.198349 0.037559 0.000655 0.000002 0.000000 0.000000
0.199563 0.037294 0.000588 0.000002 0.000000 0.000000
0.200874 0.037311 0.000723 0.000002 0.000000 0.000000
0.202298 0.037200 0.000704 0.000002 0.000000 0.000000
0.203715 0.037415 0.000729 0.000002 3.069004 0.000006
0.204877 0.038086 0.000610 0.000002 0.000000 0.000000
0.206462 0.037841 0.000778 0.000002 0.000000 0.000000
0.207993 0.037505 0.000786 0.000002 0.000000 0.000000
0.209507 0.037181 0.000761 0.000002 0.000000 0.000000
0.210828 0.037889 0.000737 0.000002 44.794841 0.000098
0.212355 0.038324 0.000767 0.000002 13.326215 0.000027
0.213622 0.037551 0.000717 0.000002 0.000000 0.000000
0.214973 0.037471 0.000635 0.000002 0.000000 0.000000
0.216267 0.037949 0.000743 0.000002 0.000000 0.000000
0.217581 0.038490 0.000631 0.000002 0.000000 0.000000
0.218842 0.037617 0.000750 0.000002 0.000000 0.000000
0.220372 0.037583 0.000735 0.000002 0.000000 0.000000
0.221825 0.037264 0.000676 0.000002 0.000000 0.000000
0.223449 0.037235 0.000819 0.000002 0.000000 0.000000
0.000696 0.040229 0.000693 0.000002 0.000000 0.000000
0.001996 0.039580 0.000748 0.000002 398.347408 0.000780
0.003392 0.039838 0.000666 0.000002 0.000000 0.000000
0.003895 0.038608 0.000657 0.000002 0.000000 0.000000
0.005201 0.038965 0.000671 0.000002 0.000000 0.000000
0.006549 0.039408 0.000610 0.000002 2.957812 0.000005
0.007872 0.039109 0.000747 0.000002 0.000000 0.000000
0.009561 0.039742 0.000831 0.000002 0.000000 0.000000
0.011123 0.039690 0.000732 0.000002 0.000000 0.000000
0.012714 0.039403 0.000661 0.000002 0.000000 0.000000
0.015210 0.040126 0.000746 0.000002 0.000000 0.000000
0.016575 0.039697 0.000631 0.000002 0.000000 0.000000
0.018299 0.039560 0.000720 0.000002 0.000000 0.000000
0.019564 0.039261 0.000580 0.000001 0.000000 0.000000
0.020751 0.038847 0.000677 0.000002 0.000000 0.000000
0.021939 0.039646 0.000753 0.000002 0.000000 0.000000
0.023325 0.039089 0.000740 0.000002 0.850380 0.000002
0.024618 0.039253 0.000564 0.000001 0.000000 0.000000
0.025911 0.039742 0.000817 0.000002 0.000000 0.000000
0.027451 0.039884 0.000728 0.000002 0.000000 0.000000
0.029544 0.039925 0.000798 0.000002 0.000000 0.000000
0.031056 0.039704 0.000712 0.000002 0.000000 0.000000
0.032448 0.039446 0.000704 0.000002 0.000000 0.000000
0.033739 0.039418 0.000587 0.000002 0.000000 0.000000
0.035030 0.039513 0.000694 0.000002 0.000000 0.000000
0.036487 0.039373 0.000770 0.000002 1.500925 0.000003
0.037921 0.039807 0.000729 0.000002 0.000000 0.000000
0.039435 0.039404 0.000763 0.000002 3.624945 0.000008
0.040901 0.038960 0.000769 0.000002 0.000000 0.000000
0.042570 0.038813 0.000697 0.000002 0.000000 0.000000
0.043894 0.038912 0.000622 0.000002 0.000000 0.000000
0.045022 0.038352 0.000637 0.000002 0.000000 0.000000
0.046117 0.037677 0.000646 0.000002 0.000000 0.000000
0.047113 0.038517 0.000653 0.000002 0.000000 0.000000
0.048339 0.039097 0.000702 0.000002 0.000000 0.000000
0.049648 0.038596 0.000697 0.000002 0.000000 0.000000
0.050795 0.039436 0.000724 0.000002 0.000000 0.000000
0.051981 0.038548 0.000755 0.000002 0.000000 0.000000
0.053489 0.038735 0.000764 0.000002 0.000000 0.000000
0.054768 0.038353 0.000570 0.000002 0.000000 0.000000
0.056137 0.038529 0.000810 0.000002 0.449668 0.000001
0.057658 0.038397 0.000718 0.000002 -0.038721 -0.000000
0.059113 0.038535 0.000743 0.000002 0.000000 0.000000
0.060518 0.038709 0.000673 0.000002 18.133031 0.000033
0.062106 0.038748 0.000627 0.000002 0.000000 0.000000
0.063616 0.038653 0.000739 0.000002 0.000000 0.000000
0.065053 0.038287 0.000643 0.000002 0.000000 0.000000
0.066835 0.038689 0.000605 0.000002 0.000000 0.000000
0.068144 0.038809 0.000673 0.000002 0.000000 0.000000
0.069552 0.038944 0.000677 0.000002 0.000000 0.000000
0.070911 0.039079 0.000659 0.000002 0.000000 0.000000
0.072385 0.039036 0.000816 0.000002 6.434525 0.000013
0.073769 0.039525 0.000652 0.000002 0.000000 0.000000
0.075107 0.039687 0.000694 0.000002 0.000000 0.000000
0.076520 0.039863 0.000677 0.000002 0.000000 0.000000
0.077926 0.040377 0.000820 0.000002 0.000000 0.000000
0.079350 0.039797 0.000717 0.000002 0.000000 0.000000
0.080884 0.039735 0.000817 0.000002 0.000000 0.000000
0.082657 0.039287 0.000765 0.000002 32.509320 0.000067
0.084204 0.039140 0.000619 0.000002 0.000000 0.000000
0.085497 0.039025 0.000668 0.000002 0.000000 0.000000
0.087094 0.038459 0.000753 0.000002 0.000000 0.000000
0.088102 0.039584 0.000718 0.000002 0.000000 0.000000
0.089488 0.039266 0.000685 0.000002 0.000000 0.000000
0.090869 0.039181 0.000697 0.000002 0.000000 0.000000
0.092365 0.039108 0.000785 0.000002 4.405643 0.000009
0.093924 0.038806 0.000728 0.000002 0.000000 0.000000
0.095387 0.039099 0.000764 0.000002 0.000000 0.000000
0.097232 0.039585 0.000778 0.000002 0.000000 0.000000
0.098493 0.038844 0.000683 0.000002 0.000000 0.000000
0.099987 0.039195 0.000851 0.000002 0.000000 0.000000
0.101577 0.038735 0.000591 0.000002 0.000000 0.000000
0.102628 0.039535 0.000728 0.000002 -0.079579 -0.000000
0.103938 0.039338 0.000598 0.000002 0.000000 0.000000
0.105215 0.039259 0.000650 0.000002 0.000000 0.000000
0.106619 0.039252 0.000754 0.000002 61.297894 0.000123
0.108145 0.039234 0.000773 0.000002 0.000000 0.000000
0.109639 0.039208 0.000717 0.000002 0.000000 0.000000
0.111003 0.039168 0.000646 0.000002 0.000000 0.000000
0.112304 0.039754 0.000779 0.000002 1.152148 0.000002
0.114481 0.039814 0.000714 0.000002 0.000000 0.000000
0.115964 0.039903 0.000773 0.000002 0.000000 0.000000
0.117490 0.040222 0.000785 0.000002 0.000000 0.000000
0.118707 0.039380 0.000614 0.000002 0.000000 0.000000
0.119925 0.039711 0.000640 0.000002 0.000000 0.000000
0.121391 0.039689 0.000792 0.000002 0.000000 0.000000
0.123019 0.039183 0.000818 0.000002 0.000000 0.000000
0.124987 0.039530 0.000696 0.000002 -0.147301 -0.000000
0.126353 0.039634 0.000674 0.000002 0.000000 0.000000
0.127883 0.039774 0.000861 0.000002 0.000000 0.000000
0.129439 0.039789 0.000692 0.000002 0.000000 0.000000
0.130836 0.039712 0.000707 0.000002 0.000000 0.000000
0.132333 0.039713 0.000789 0.000002 10.609721 0.000022
0.134088 0.039737 0.000664 0.000002 0.000000 0.000000
0.135390 0.039816 0.000634 0.000002 0.000000 0.000000
0.136776 0.039861 0.000597 0.000002 0.000000 0.000000
0.138127 0.039652 0.000770 0.000002 0.183544 0.000000
0.139498 0.039742 0.000603 0.000002 0.000000 0.000000
0.140765 0.040270 0.000769 0.000002 0.000000 0.000000
0.142086 0.039410 0.000803 0.000002 0.000000 0.000000
0.143646 0.039445 0.000758 0.000002 0.000000 0.000000
0.145159 0.039438 0.000756 0.000002 0.000000 0.000000
0.146619 0.039138 0.000702 0.000002 0.346270 0.000001
0.148061 0.039348 0.000756 0.000002 0.000000 0.000000
0.149250 0.038533 0.000554 0.000002 0.000000 0.000000
0.150475 0.038931 0.000727 0.000002 11.341730 0.000021
0.151868 0.038592 0.000705 0.000002 0.000000 0.000000
0.153300 0.038934 0.000768 0.000002 0.000000 0.000000
0.154754 0.038858 0.000666 0.000002 0.000000 0.000000
0.156230 0.038876 0.000635 0.000002 0.007413 0.000000
0.157482 0.039048 0.000629 0.000002 14.569317 0.000022
0.158643 0.038867 0.000546 0.000001 91.061538 0.000133
0.159566 0.039660 0.000670 0.000002 3.614928 0.000006
0.161172 0.038802 0.000635 0.000002 0.000000 0.000000
0.162461 0.039056 0.000678 0.000002 0.000000 0.000000
0.163810 0.039819 0.000825 0.000002 0.000000 0.000000
0.165508 0.039882 0.000634 0.000002 0.000000 0.000000
0.166869 0.039979 0.000727 0.000002 0.000000 0.000000
0.168207 0.039524 0.000685 0.000002 0.000000 0.000000
0.169681 0.039347 0.000799 0.000002 17.589845 0.000035
0.171277 0.039130 0.000811 0.000002 0.000000 0.000000
0.172768 0.039448 0.000701 0.000002 0.000000 0.000000
0.174253 0.039566 0.000765 0.000002 0.000000 0.000000
0.175694 0.039287 0.000674 0.000002 0.000000 0.000000
0.177175 0.039657 0.000849 0.000002 0.000000 0.000000
0.178846 0.039602 0.000774 0.000002 0.000000 0.000000
0.180361 0.039382 0.000740 0.000002 -0.165242 -0.000000
0.181748 0.039194 0.000660 0.000002 30.101675 0.000056
0.182782 0.040156 0.000753 0.000002 13.933299 0.000026
0.184136 0.039751 0.000661 0.000002 1.038131 0.000002
0.185453 0.039613 0.000664 0.000002 0.000000 0.000000
0.186830 0.039507 0.000628 0.000002 0.000000 0.000000
0.188192 0.039514 0.000734 0.000002 0.000000 0.000000
0.189599 0.039844 0.000711 0.000002 0.000000 0.000000
0.190921 0.039855 0.000611 0.000002 0.000000 0.000000
0.192025 0.040677 0.000762 0.000002 0.000000 0.000000
0.194198 0.040463 0.000709 0.000002 0.000000 0.000000
0.195604 0.039940 0.000721 0.000002 0.137981 0.000000
0.196972 0.039500 0.000716 0.000002 0.000000 0.000000
0.198344 0.038971 0.000754 0.000002 0.000000 0.000000
0.199824 0.038627 0.000701 0.000002 0.000000 0.000000
0.201302 0.038697 0.000725 0.000002 0.000000 0.000000
0.202788 0.038587 0.000765 0.000002 0.000000 0.000000
0.204127 0.039135 0.000678 0.000002 0.000000 0.000000
0.205652 0.039223 0.000762 0.000002 1.050757 0.000002
0.207143 0.039286 0.000730 0.000002 11.080818 0.000023
0.208460 0.038869 0.000652 0.000002 0.000000 0.000000
0.209861 0.039026 0.000756 0.000002 0.000000 0.000000
0.211318 0.039442 0.000758 0.000002 0.000000 0.000000
0.212741 0.039870 0.000721 0.000002 0.000000 0.000000
0.213614 0.038873 0.000602 0.000002 0.000000 0.000000
0.215032 0.038930 0.000814 0.000002 0.000000 0.000000
0.216550 0.039329 0.000661 0.000002 0.000000 0.000000
0.218032 0.039742 0.000660 0.000002 0.000000 0.000000
0.219350 0.039022 0.000742 0.000002 0.000000 0.000000
0.221422 0.038612 0.000731 0.000002 0.000000 0.000000
0.222911 0.038669 0.000710 0.000003 0.000000 0.000000
0.000731 0.041709 0.000731 0.000002 0.000000 0.000000
0.001795 0.040908 0.000596 0.000002 0.000000 0.000000
0.003075 0.041402 0.000776 0.000002 9.633618 0.000019
0.004407 0.040765 0.000700 0.000002 0.000000 0.000000
0.005603 0.040199 0.000623 0.000002 0.000000 0.000000
0.006965 0.040742 0.000775 0.000002 0.000000 0.000000
0.008289 0.040386 0.000594 0.000002 0.000000 0.000000
0.009218 0.041122 0.000591 0.000002 0.000000 0.000000
0.010470 0.040918 0.000654 0.000002 0.000000 0.000000
0.012168 0.040590 0.000643 0.000002 20.033682 0.000035
0.013681 0.040602 0.000840 0.000002 0.000000 0.000000
0.016379 0.041092 0.000767 0.000002 0.381100 0.000001
0.017765 0.040825 0.000644 0.000002 0.000000 0.000000
0.019326 0.040488 0.000665 0.000002 0.467519 0.000001
0.020605 0.040170 0.000653 0.000002 0.000000 0.000000
0.021638 0.041112 0.000737 0.000002 0.000000 0.000000
0.023025 0.040657 0.000712 0.000002 0.000000 0.000000
0.024326 0.040392 0.000609 0.000002 0.000000 0.000000
0.025243 0.041247 0.000624 0.000002 0.000000 0.000000
0.026653 0.041173 0.000787 0.000002 0.000000 0.000000
0.028422 0.041070 0.000799 0.000002 0.000000 0.000000
0.029857 0.041355 0.000663 0.000002 0.000000 0.000000
0.031274 0.041174 0.000764 0.000002 0.157743 0.000000
0.032679 0.040819 0.000685 0.000002 0.000000 0.000000
0.034171 0.040747 0.000808 0.000002 0.000000 0.000000
0.035791 0.040814 0.000811 0.000002 0.000000 0.000000
0.037359 0.041249 0.000815 0.000002 0.000000 0.000000
0.039001 0.040959 0.000850 0.000002 0.000000 0.000000
0.040514 0.040433 0.000728 0.000002 24.601981 0.000048
0.041898 0.040039 0.000700 0.000002 0.000000 0.000000
0.043225 0.039969 0.000629 0.000002 0.000000 0.000000
0.044921 0.039600 0.000613 0.000001 0.000000 0.000000
0.046007 0.039080 0.000587 0.000002 0.000000 0.000000
0.047093 0.040022 0.000848 0.000002 0.000000 0.000000
0.048272 0.040916 0.000630 0.000002 0.000000 0.000000
0.049440 0.040113 0.000786 0.000002 0.000000 0.000000
0.050790 0.040971 0.000810 0.000002 0.000000 0.000000
0.052169 0.040110 0.000804 0.000002 0.000000 0.000000
0.053680 0.040201 0.000708 0.000002 0.000000 0.000000
0.055057 0.039644 0.000734 0.000002 0.000000 0.000000
0.056877 0.039775 0.000638 0.000002 0.000000 0.000000
0.058261 0.039758 0.000747 0.000002 0.000000 0.000000
0.059735 0.039868 0.000723 0.000002 0.000000 0.000000
0.061322 0.039840 0.000715 0.000002 0.000000 0.000000
0.062829 0.039887 0.000718 0.000002 0.000000 0.000000
0.064267 0.039963 0.000720 0.000002 5.296036 0.000010
0.065735 0.039565 0.000802 0.000002 0.000000 0.000000
0.067334 0.039769 0.000580 0.000002 0.000000 0.000000
0.068738 0.039991 0.000645 0.000002 0.000000 0.000000
0.070133 0.040165 0.000674 0.000002 0.000000 0.000000
0.071529 0.040329 0.000730 0.000002 0.000000 0.000000
0.072924 0.040562 0.000683 0.000002 0.000000 0.000000
0.074315 0.040891 0.000745 0.000002 21.664612 0.000042
0.075693 0.040878 0.000631 0.000002 2.404031 0.000004
0.076860 0.041366 0.000634 0.000002 2.317499 0.000004
0.078041 0.041832 0.000634 0.000002 0.000000 0.000000
0.079187 0.041184 0.000675 0.000002 0.000000 0.000000
0.080649 0.041331 0.000792 0.000002 0.000000 0.000000
0.082129 0.040743 0.000784 0.000002 0.000000 0.000000
0.083643 0.040436 0.000749 0.000002 0.000000 0.000000
0.085165 0.040435 0.000771 0.000002 0.000000 0.000000
0.086630 0.039916 0.000773 0.000002 0.000000 0.000000
0.089113 0.040641 0.000739 0.000002 1.452043 0.000003
0.090449 0.040428 0.000615 0.000002 0.000000 0.000000
0.091758 0.040443 0.000681 0.000002 0.000000 0.000000
0.093435 0.040201 0.000745 0.000002 0.000000 0.000000
0.094812 0.040385 0.000642 0.000002 20.103632 0.000037
0.096172 0.040692 0.000752 0.000002 0.000000 0.000000
0.097481 0.040896 0.000555 0.000002 0.000000 0.000000
0.098558 0.040219 0.000690 0.000002 0.000000 0.000000
0.099871 0.040792 0.000742 0.000002 0.000000 0.000000
0.101291 0.040034 0.000700 0.000002 0.000000 0.000000
0.102779 0.041065 0.000810 0.000002 9.448830 0.000021
0.104279 0.040643 0.000748 0.000002 0.013836 0.000000
0.105844 0.040619 0.000817 0.000002 0.000000 0.000000
0.107428 0.040600 0.000766 0.000002 0.000000 0.000000
0.108983 0.040567 0.000789 0.000002 0.000000 0.000000
0.110542 0.040516 0.000762 0.000002 0.000000 0.000000
0.111887 0.041243 0.000766 0.000002 0.000000 0.000000
0.113409 0.040878 0.000796 0.000002 0.000000 0.000000
0.115002 0.041125 0.000668 0.000002 0.000000 0.000000
0.116439 0.041396 0.000791 0.000002 0.000000 0.000000
0.117911 0.041831 0.000741 0.000002 7.541163 0.000015
0.118961 0.040742 0.000772 0.000002 0.000000 0.000000
0.120519 0.041047 0.000815 0.000002 0.000000 0.000000
0.122574 0.040714 0.000773 0.000002 0.000000 0.000000
0.124087 0.040654 0.000741 0.000002 0.000000 0.000000
0.125496 0.040810 0.000676 0.000002 0.000000 0.000000
0.126850 0.040923 0.000681 0.000002 0.000000 0.000000
0.128838 0.041036 0.000691 0.000002 0.447986 0.000001
0.130194 0.040933 0.000668 0.000002 0.000000 0.000000
0.131506 0.040884 0.000643 0.000002 0.000000 0.000000
0.133280 0.040911 0.000737 0.000002 19.052350 0.000037
0.134689 0.040944 0.000673 0.000002 0.072260 0.000000
0.136084 0.040983 0.000722 0.000002 0.000000 0.000000
0.137486 0.040954 0.000680 0.000002 0.000000 0.000000
0.138906 0.040953 0.000737 0.000002 84.927024 0.000169
0.140205 0.041717 0.000770 0.000002 0.000000 0.000000
0.141551 0.041402 0.000608 0.000002 0.000000 0.000000
0.142840 0.040826 0.000802 0.000002 0.000000 0.000000
0.144404 0.040757 0.000758 0.000002 0.000000 0.000000
0.145761 0.040677 0.000596 0.000002 0.000000 0.000000
0.147108 0.040483 0.000722 0.000002 0.000000 0.000000
0.148514 0.040615 0.000586 0.000002 0.000000 0.000000
0.149392 0.039762 0.000638 0.000002 0.000000 0.000000
0.150554 0.040405 0.000679 0.000002 0.000000 0.000000
0.151907 0.040021 0.000725 0.000002 0.000000 0.000000
0.154136 0.040137 0.000697 0.000002 0.360687 0.000001
0.155512 0.039983 0.000684 0.000002 0.000000 0.000000
0.156836 0.040151 0.000650 0.000002 0.000000 0.000000
0.158243 0.040221 0.000743 0.000002 0.000000 0.000000
0.159784 0.041008 0.000694 0.000002 8.842830 0.000016
0.160860 0.040104 0.000697 0.000002 0.000000 0.000000
0.162322 0.040575 0.000838 0.000002 0.000000 0.000000
0.163620 0.041271 0.000635 0.000002 0.000000 0.000000
0.164771 0.040856 0.000587 0.000002 0.000000 0.000000
0.166012 0.041081 0.000663 0.000002 0.000000 0.000000
0.167719 0.040881 0.000511 0.000002 0.000000 0.000000
0.168929 0.040722 0.000710 0.000002 -0.005883 -0.000000
0.170371 0.040714 0.000732 0.000002 -0.395131 -0.000001
0.171861 0.040598 0.000762 0.000002 0.000000 0.000000
0.173246 0.040673 0.000597 0.000002 0.000000 0.000000
0.174498 0.041316 0.000810 0.000002 0.000000 0.000000
0.175892 0.040672 0.000720 0.000002 0.000000 0.000000
0.177195 0.041171 0.000663 0.000002 0.000000 0.000000
0.178481 0.041165 0.000620 0.000002 0.000000 0.000000
0.179850 0.040816 0.000781 0.000002 0.000000 0.000000
0.181294 0.040462 0.000683 0.000002 0.000000 0.000000
0.182427 0.041565 0.000700 0.000002 0.000000 0.000000
0.183874 0.041160 0.000727 0.000002 0.000000 0.000000
0.186116 0.040936 0.000814 0.000002 0.000000 0.000000
0.187508 0.040666 0.000603 0.000002 6.732263 0.000011
0.188840 0.041185 0.000827 0.000002 0.000000 0.000000
0.190321 0.041039 0.000640 0.000002 0.000000 0.000000
0.191280 0.041854 0.000614 0.000002 0.000000 0.000000
0.192574 0.041949 0.000621 0.000002 0.000000 0.000000
0.193986 0.041950 0.000785 0.000002 0.000000 0.000000
0.195299 0.041305 0.000673 0.000002 0.000000 0.000000
0.196679 0.040940 0.000746 0.000002 0.000000 0.000000
0.198102 0.040477 0.000749 0.000002 0.000000 0.000000
0.199279 0.039898 0.000561 0.000002 0.000000 0.000000
0.200500 0.039830 0.000661 0.000002 0.000000 0.000000
0.201998 0.040001 0.000747 0.000002 0.000000 0.000000
0.203373 0.040223 0.000644 0.000002 0.000000 0.000000
0.204723 0.040401 0.000716 0.000002 0.000000 0.000000
0.206173 0.040610 0.000711 0.000002 0.000000 0.000000
0.207572 0.040644 0.000688 0.000002 0.000000 0.000000
0.208874 0.040160 0.000700 0.000002 0.000000 0.000000
0.210252 0.040461 0.000708 0.000002 0.000000 0.000000
0.211730 0.040795 0.000649 0.000002 0.000000 0.000000
0.213293 0.041328 0.000805 0.000002 0.000000 0.000000
0.214138 0.040072 0.000622 0.000002 0.000000 0.000000
0.215584 0.040293 0.000649 0.000002 0.000000 0.000000
0.217017 0.040445 0.000542 0.000002 0.000000 0.000000
0.219276 0.040594 0.000771 0.000002 0.000000 0.000000
0.220591 0.039813 0.000729 0.000002 0.000000 0.000000
0.222063 0.039947 0.000739 0.000002 0.000000 0.000000
0.223884 0.040311 0.000828 0.000002 0.000000 0.000000
0.000693 0.043140 0.000675 0.000002 0.000000 0.000000
0.001961 0.042195 0.000591 0.000002 0.000000 0.000000
0.003027 0.043056 0.000778 0.000002 0.000000 0.000000
0.004360 0.042266 0.000770 0.000002 20.211022 0.000041
0.005683 0.041553 0.000734 0.000002 18.586052 0.000035
0.006932 0.042300 0.000722 0.000002 0.000000 0.000000
0.008091 0.041597 0.000631 0.000002 0.000000 0.000000
0.011325 0.041982 0.000711 0.000002 0.000000 0.000000
0.012572 0.041724 0.000561 0.000001 0.000000 0.000000
0.013696 0.042054 0.000609 0.000002 0.000000 0.000000
0.014906 0.041543 0.000703 0.000002 0.000000 0.000000
0.017285 0.042329 0.000766 0.000002 0.000000 0.000000
0.018806 0.041880 0.000818 0.000002 0.000000 0.000000
0.020257 0.041474 0.000688 0.000002 0.000000 0.000000
0.021268 0.042582 0.000776 0.000002 0.000000 0.000000
0.022702 0.042092 0.000706 0.000002 0.000000 0.000000
0.024004 0.041636 0.000673 0.000002 0.000000 0.000000
0.025005 0.042493 0.000643 0.000002 0.000000 0.000000
0.026302 0.042572 0.000654 0.000002 0.000000 0.000000
0.027597 0.042285 0.000668 0.000002 0.000000 0.000000
0.029023 0.042531 0.000777 0.000002 0.000000 0.000000
0.030544 0.042518 0.000684 0.000002 0.000000 0.000000
0.031899 0.042467 0.000671 0.000002 0.000000 0.000000
0.033359 0.042164 0.000818 0.000002 0.000000 0.000000
0.034907 0.042099 0.000730 0.000002 0.000000 0.000000
0.036360 0.042484 0.000771 0.000002 0.000000 0.000000
0.037717 0.042609 0.000591 0.000002 0.000000 0.000000
0.039023 0.042526 0.000715 0.000002 0.000000 0.000000
0.040210 0.041849 0.000650 0.000002 0.000000 0.000000
0.041587 0.041484 0.000774 0.000002 0.000000 0.000000
0.042922 0.041164 0.000599 0.000002 0.000000 0.000000
0.044296 0.040757 0.000699 0.000002 0.000000 0.000000
0.045688 0.040663 0.000695 0.000002 0.000000 0.000000
0.046881 0.041640 0.000780 0.000002 -0.098932 -0.000000
0.048199 0.042269 0.000681 0.000002 0.000000 0.000000
0.049415 0.041606 0.000705 0.000002 0.000000 0.000000
0.050782 0.042500 0.000709 0.000002 0.000000 0.000000
0.052106 0.041690 0.000689 0.000002 0.000000 0.000000
0.053504 0.041618 0.000711 0.000002 0.000000 0.000000
0.054744 0.041045 0.000648 0.000002 0.000000 0.000000
0.055974 0.040677 0.000635 0.000002 0.000000 0.000000
0.057537 0.040922 0.000622 0.000002 0.000000 0.000000
0.058927 0.041059 0.000714 0.000002 0.000000 0.000000
0.060561 0.040998 0.000670 0.000002 0.000000 0.000000
0.062030 0.041177 0.000798 0.000002 0.000000 0.000000
0.063499 0.041162 0.000671 0.000002 0.000000 0.000000
0.064849 0.041218 0.000657 0.000002 0.000000 0.000000
0.066251 0.041043 0.000757 0.000002 -0.046636 -0.000000
0.067779 0.041057 0.000771 0.000002 0.000000 0.000000
0.069260 0.041259 0.000723 0.000002 20.361862 0.000036
0.070672 0.041480 0.000704 0.000002 0.000000 0.000000
0.072068 0.041661 0.000699 0.000002 0.000000 0.000000
0.073442 0.042092 0.000739 0.000002 0.000000 0.000000
0.075484 0.042199 0.000700 0.000002 0.000000 0.000000
0.076774 0.042664 0.000667 0.000002 9.104254 0.000015
0.078024 0.043126 0.000655 0.000002 0.000000 0.000000
0.079328 0.042598 0.000743 0.000002 0.000000 0.000000
0.080714 0.042779 0.000653 0.000002 0.000000 0.000000
0.082078 0.042319 0.000786 0.000002 0.000000 0.000000
0.083572 0.041941 0.000755 0.000002 0.000000 0.000000
0.084963 0.041807 0.000605 0.000002 0.000000 0.000000
0.086311 0.041434 0.000744 0.000002 0.000000 0.000000
0.087694 0.040963 0.000716 0.000002 0.000000 0.000000
0.090085 0.041657 0.000662 0.000002 0.000000 0.000000
0.091458 0.041986 0.000749 0.000002 0.000000 0.000000
0.092805 0.041492 0.000686 0.000002 0.000000 0.000000
0.094093 0.041403 0.000604 0.000002 0.000000 0.000000
0.095333 0.041925 0.000739 0.000002 0.000000 0.000000
0.096837 0.042049 0.000758 0.000002 0.000000 0.000000
0.098514 0.041623 0.000707 0.000002 2.819542 0.000005
0.099836 0.042331 0.000793 0.000002 59.021455 0.000133
0.101231 0.041544 0.000809 0.000002 0.000000 0.000000
0.102405 0.042574 0.000740 0.000002 46.187187 0.000089
0.103867 0.042135 0.000716 0.000002 0.000000 0.000000
0.105242 0.041978 0.000669 0.000002 0.000000 0.000000
0.106701 0.041975 0.000787 0.000002 0.000000 0.000000
0.108161 0.041818 0.000637 0.000002 0.000000 0.000000
0.109610 0.042065 0.000832 0.000002 2.976125 0.000006
0.111091 0.042490 0.000709 0.000002 0.000000 0.000000
0.112414 0.042519 0.000613 0.000002 0.000000 0.000000
0.113809 0.042409 0.000786 0.000002 0.000000 0.000000
0.115385 0.042589 0.000801 0.000002 27.794882 0.000058
0.116846 0.042847 0.000683 0.000002 0.000000 0.000000
0.118324 0.043241 0.000716 0.000002 0.000000 0.000000
0.119278 0.042148 0.000662 0.000002 0.000000 0.000000
0.120559 0.042555 0.000682 0.000002 0.000000 0.000000
0.121751 0.041907 0.000674 0.000002 0.000000 0.000000
0.123302 0.042003 0.000706 0.000002 0.000000 0.000000
0.124726 0.041975 0.000718 0.000002 0.000000 0.000000
0.126073 0.041982 0.000628 0.000002 0.000000 0.000000
0.127782 0.041932 0.000691 0.000002 0.000000 0.000000
0.129547 0.042214 0.000680 0.000002 -0.045395 -0.000000
0.130941 0.042125 0.000717 0.000002 0.000000 0.000000
0.132459 0.042211 0.000799 0.000002 0.000000 0.000000
0.133946 0.042112 0.000636 0.000002 0.000000 0.000000
0.135298 0.042197 0.000718 0.000002 0.000000 0.000000
0.136707 0.042252 0.000691 0.000002 0.000000 0.000000
0.138140 0.042220 0.000743 0.000002 0.000000 0.000000
0.139414 0.043038 0.000769 0.000002 0.000000 0.000000
0.141051 0.042929 0.000696 0.000002 0.000000 0.000000
0.142311 0.042411 0.000655 0.000002 0.000000 0.000000
0.143720 0.042138 0.000778 0.000002 0.000000 0.000000
0.145206 0.041992 0.000714 0.000002 0.000000 0.000000
0.146659 0.041879 0.000744 0.000002 0.000000 0.000000
0.148061 0.041776 0.000659 0.000002 0.000000 0.000000
0.149555 0.041263 0.000615 0.000002 0.000000 0.000000
0.151507 0.041311 0.000626 0.000002 0.000000 0.000000
0.152983 0.041176 0.000854 0.000002 0.000000 0.000000
0.154685 0.041520 0.000787 0.000002 0.000000 0.000000
0.156020 0.041119 0.000554 0.000001 0.000000 0.000000
0.157154 0.041371 0.000606 0.000002 0.000000 0.000000
0.158505 0.041801 0.000810 0.000002 0.000000 0.000000
0.159882 0.042375 0.000674 0.000002 0.000000 0.000000
0.161105 0.041611 0.000758 0.000002 0.000000 0.000000
0.162539 0.042219 0.000799 0.000002 0.000000 0.000000
0.164101 0.042648 0.000820 0.000002 0.000000 0.000000
0.165582 0.042371 0.000687 0.000002 0.000000 0.000000
0.166891 0.041983 0.000595 0.000002 0.000000 0.000000
0.168257 0.042052 0.000772 0.000002 0.000000 0.000000
0.169708 0.041961 0.000680 0.000002 0.000000 0.000000
0.171184 0.041889 0.000695 0.000002 0.000000 0.000000
0.172638 0.041725 0.000607 0.000002 0.000000 0.000000
0.173609 0.042691 0.000762 0.000002 0.000000 0.000000
0.175089 0.042732 0.000719 0.000002 0.000000 0.000000
0.176238 0.042034 0.000620 0.000002 0.000000 0.000000
0.177769 0.042566 0.000843 0.000002 0.000000 0.000000
0.179393 0.042319 0.000770 0.000002 0.000000 0.000000
0.180994 0.041875 0.000760 0.000002 0.000000 0.000000
0.182035 0.042931 0.000717 0.000002 0.000000 0.000000
0.183473 0.042560 0.000727 0.000002 0.000000 0.000000
0.185025 0.041893 0.000637 0.000002 0.000000 0.000000
0.187330 0.041937 0.000673 0.000002 0.000000 0.000000
0.188467 0.042666 0.000678 0.000002 0.811110 0.000002
0.189959 0.042556 0.000817 0.000002 0.000000 0.000000
0.191420 0.043317 0.000830 0.000002 6.633981 0.000015
0.192996 0.043253 0.000747 0.000002 0.836868 0.000002
0.194357 0.043368 0.000620 0.000002 0.000000 0.000000
0.195364 0.042617 0.000636 0.000002 0.000000 0.000000
0.196647 0.042363 0.000668 0.000002 0.000000 0.000000
0.197979 0.041962 0.000723 0.000002 0.000000 0.000000
0.199422 0.041234 0.000771 0.000002 0.000000 0.000000
0.200985 0.041188 0.000776 0.000002 0.000000 0.000000
0.202535 0.041311 0.000663 0.000002 0.000000 0.000000
0.203846 0.041467 0.000656 0.000002 0.000000 0.000000
0.205298 0.041661 0.000655 0.000002 0.000000 0.000000
0.206697 0.041896 0.000676 0.000002 0.000000 0.000000
0.208044 0.041945 0.000673 0.000002 0.000000 0.000000
0.209276 0.041459 0.000651 0.000002 -0.796576 -0.000001
0.210480 0.041800 0.000600 0.000002 -0.648952 -0.000001
0.211641 0.042038 0.000586 0.000002 3.318615 0.000006
0.212745 0.042841 0.000779 0.000002 0.000000 0.000000
0.214801 0.041438 0.000705 0.000002 0.000000 0.000000
0.216286 0.041465 0.000708 0.000002 0.000000 0.000000
0.217889 0.041541 0.000848 0.000002 0.000000 0.000000
0.219691 0.042130 0.000731 0.000002 0.000000 0.000000
0.220938 0.041215 0.000710 0.000002 0.000000 0.000000
0.222375 0.041374 0.000716 0.000002 0.000000 0.000000
0.000690 0.044926 0.000684 0.000002 19.556089 0.000048
0.001869 0.044082 0.000767 0.000003 0.000000 0.000000
0.003362 0.045023 0.000735 0.000003 0.000000 0.000000
0.004374 0.043824 0.000771 0.000002 0.000000 0.000000
0.005663 0.043023 0.000732 0.000002 0.000000 0.000000
0.008344 0.042904 0.000696 0.000002 0.000000 0.000000
0.009828 0.042428 0.000845 0.000002 2.504068 0.000005
0.012291 0.042830 0.000572 0.000001 0.000000 0.000000
0.013387 0.043215 0.000589 0.000001 0.000000 0.000000
0.014692 0.042968 0.000738 0.000002 0.000000 0.000000
0.015907 0.042388 0.000605 0.000002 0.000000 0.000000
0.016478 0.043550 0.000687 0.000002 0.000000 0.000000
0.018381 0.043390 0.000742 0.000002 0.000000 0.000000
0.019852 0.042982 0.000693 0.000002 0.000000 0.000000
0.020812 0.043953 0.000660 0.000002 0.000000 0.000000
0.022474 0.043571 0.000782 0.000002 0.000000 0.000000
0.023753 0.042917 0.000626 0.000002 0.000000 0.000000
0.024724 0.043821 0.000698 0.000002 0.000000 0.000000
0.026098 0.043902 0.000678 0.000002 0.000000 0.000000
0.027418 0.043613 0.000670 0.000002 0.000000 0.000000
0.028640 0.043824 0.000570 0.000002 0.000000 0.000000
0.029880 0.043697 0.000664 0.000002 0.000000 0.000000
0.031263 0.043709 0.000706 0.000002 0.000000 0.000000
0.032744 0.043643 0.000773 0.000002 0.000000 0.000000
0.034264 0.043451 0.000756 0.000002 0.000000 0.000000
0.035693 0.043836 0.000723 0.000002 2.022995 0.000004
0.037106 0.043751 0.000693 0.000002 0.000000 0.000000
0.038436 0.043748 0.000635 0.000002 0.000000 0.000000
0.039829 0.043647 0.000660 0.000002 0.000000 0.000000
0.041158 0.043013 0.000810 0.000002 0.000000 0.000000
0.042734 0.042595 0.000820 0.000002 1.200263 0.000002
0.044184 0.042152 0.000696 0.000002 0.000000 0.000000
0.045508 0.041989 0.000637 0.000002 0.000000 0.000000
0.046369 0.042978 0.000645 0.000002 0.000000 0.000000
0.048018 0.043614 0.000663 0.000002 0.000000 0.000000
0.049407 0.043118 0.000793 0.000002 0.000000 0.000000
0.050718 0.043996 0.000785 0.000002 0.000000 0.000000
0.052133 0.043214 0.000818 0.000002 5.348311 0.000012
0.053559 0.042965 0.000630 0.000002 0.000000 0.000000
0.055241 0.042137 0.000542 0.000002 0.000000 0.000000
0.056583 0.041986 0.000807 0.000002 0.000000 0.000000
0.058081 0.042202 0.000705 0.000002 0.000000 0.000000
0.059829 0.042264 0.000789 0.000002 2.313743 0.000005
0.061304 0.042494 0.000704 0.000002 0.000000 0.000000
0.062755 0.042504 0.000707 0.000002 0.000000 0.000000
0.064219 0.042486 0.000755 0.000002 0.000000 0.000000
0.065590 0.042227 0.000592 0.000002 0.000000 0.000000
0.066918 0.042315 0.000669 0.000002 0.000000 0.000000
0.068398 0.042529 0.000812 0.000002 0.000000 0.000000
0.069814 0.042467 0.000596 0.000002 0.000000 0.000000
0.071067 0.042826 0.000696 0.000002 0.000000 0.000000
0.072422 0.043084 0.000682 0.000002 0.000000 0.000000
0.073435 0.044014 0.000693 0.000002 0.000000 0.000000
0.074439 0.043080 0.000661 0.000002 0.000000 0.000000
0.075764 0.043557 0.000682 0.000002 10.077210 0.000018
0.077048 0.044080 0.000705 0.000002 0.000000 0.000000
0.078590 0.044500 0.000830 0.000003 0.000000 0.000000
0.079966 0.043883 0.000675 0.000002 0.000000 0.000000
0.081674 0.043808 0.000749 0.000002 0.000000 0.000000
0.083082 0.043425 0.000705 0.000002 0.000000 0.000000
0.084513 0.043126 0.000756 0.000002 0.000000 0.000000
0.086003 0.042900 0.000752 0.000002 0.000000 0.000000
0.087454 0.042435 0.000771 0.000002 0.000000 0.000000
0.088919 0.042353 0.000695 0.000002 0.000000 0.000000
0.090139 0.042918 0.000594 0.000002 0.000000 0.000000
0.092640 0.042890 0.000720 0.000002 0.000000 0.000000
0.094095 0.042749 0.000742 0.000002 0.000000 0.000000
0.095457 0.043359 0.000700 0.000002 0.000000 0.000000
0.096831 0.043486 0.000680 0.000002 0.000000 0.000000
0.098042 0.042912 0.000657 0.000002 0.000000 0.000000
0.099220 0.043773 0.000775 0.000002 23.944674 0.000050
0.101063 0.043435 0.000854 0.000002 0.000000 0.000000
0.102418 0.043879 0.000565 0.000002 0.000000 0.000000
0.103456 0.043382 0.000585 0.000001 -0.169698 -0.000000
0.104751 0.043280 0.000714 0.000002 0.000000 0.000000
0.106068 0.043214 0.000604 0.000002 0.000000 0.000000
0.107360 0.043190 0.000594 0.000002 0.000000 0.000000
0.108665 0.043285 0.000710 0.000002 0.000000 0.000000
0.110146 0.043381 0.000589 0.000002 0.000000 0.000000
0.111392 0.043811 0.000632 0.000002 0.000000 0.000000
0.112858 0.043907 0.000831 0.000002 0.000000 0.000000
0.114438 0.043818 0.000751 0.000002 0.000000 0.000000
0.115921 0.044044 0.000746 0.000002 0.000000 0.000000
0.117380 0.044383 0.000752 0.000003 0.000000 0.000000
0.118768 0.044989 0.000641 0.000000 0.000000 0.000000
0.119670 0.043573 0.000662 0.000002 0.000000 0.000000
0.121050 0.043799 0.000655 0.000002 0.000000 0.000000
0.122411 0.043247 0.000813 0.000002 0.000000 0.000000
0.124034 0.043322 0.000795 0.000002 0.000000 0.000000
0.125502 0.043160 0.000676 0.000002 0.000000 0.000000
0.126910 0.042940 0.000641 0.000002 0.000000 0.000000
0.128496 0.043205 0.000756 0.000002 0.000000 0.000000
0.130318 0.043428 0.000712 0.000002 0.000000 0.000000
0.131689 0.043449 0.000656 0.000002 0.000000 0.000000
0.132976 0.043553 0.000635 0.000002 0.000000 0.000000
0.134400 0.043452 0.000779 0.000002 0.000000 0.000000
0.135977 0.043458 0.000689 0.000002 0.000000 0.000000
0.137397 0.043469 0.000708 0.000002 0.000000 0.000000
0.138589 0.044401 0.000788 0.000004 0.000000 0.000000
0.140383 0.044255 0.000779 0.000004 0.000000 0.000000
0.141971 0.044197 0.000807 0.000003 0.000000 0.000000
0.143314 0.043550 0.000684 0.000002 0.000000 0.000000
0.144681 0.043312 0.000702 0.000002 0.000000 0.000000
0.145993 0.043079 0.000622 0.000002 0.000000 0.000000
0.147520 0.043213 0.000839 0.000002 0.000000 0.000000
0.149159 0.042807 0.000845 0.000002 0.000000 0.000000
0.150669 0.042379 0.000724 0.000002 0.000000 0.000000
0.152156 0.042586 0.000777 0.000002 0.000000 0.000000
0.153642 0.042566 0.000682 0.000002 0.000000 0.000000
0.155905 0.042357 0.000686 0.000002 0.000000 0.000000
0.157263 0.042698 0.000715 0.000002 0.000000 0.000000
0.158831 0.043343 0.000754 0.000002 0.000000 0.000000
0.160059 0.044303 0.000797 0.000003 0.000000 0.000000
0.161236 0.043192 0.000816 0.000002 1.302429 0.000003
0.162651 0.043704 0.000688 0.000002 0.000000 0.000000
0.163909 0.044096 0.000629 0.000002 0.000000 0.000000
0.165275 0.043804 0.000767 0.000002 0.000000 0.000000
0.166689 0.043299 0.000727 0.000002 0.000000 0.000000
0.168051 0.043471 0.000645 0.000002 6.681815 0.000012
0.169201 0.043098 0.000564 0.000001 0.000000 0.000000
0.170486 0.043081 0.000674 0.000002 0.000000 0.000000
0.172109 0.042869 0.000651 0.000002 0.000000 0.000000
0.172896 0.043968 0.000687 0.000002 0.000000 0.000000
0.174320 0.043975 0.000704 0.000002 0.000000 0.000000
0.176377 0.043418 0.000740 0.000002 0.000000 0.000000
0.177829 0.044108 0.000692 0.000000 0.000000 0.000000
0.179194 0.043803 0.000671 0.000000 0.000000 0.000000
0.180560 0.043311 0.000736 0.000002 0.000000 0.000000
0.181629 0.044279 0.000691 0.000005 0.000000 0.000000
0.183181 0.044079 0.000811 0.000003 0.000000 0.000000
0.184765 0.043239 0.000727 0.000002 0.000000 0.000000
0.186142 0.042649 0.000710 0.000002 0.000000 0.000000
0.187318 0.043470 0.000724 0.000002 0.000000 0.000000
0.188593 0.044181 0.000735 0.000003 0.285158 0.000001
0.190067 0.044114 0.000740 0.000004 0.000000 0.000000
0.192156 0.044722 0.000641 0.000004 0.000000 0.000000
0.193624 0.044709 0.000806 0.000003 0.000000 0.000000
0.195061 0.044441 0.000650 0.000003 0.000000 0.000000
0.196216 0.043702 0.000719 0.000002 0.000000 0.000000
0.197577 0.043352 0.000686 0.000002 0.000000 0.000000
0.198885 0.043027 0.000660 0.000002 0.000000 0.000000
0.200242 0.042561 0.000773 0.000002 0.000000 0.000000
0.201777 0.042527 0.000761 0.000002 0.000000 0.000000
0.203177 0.042598 0.000640 0.000002 0.227566 0.000000
0.204534 0.042854 0.000741 0.000002 0.000000 0.000000
0.205881 0.042858 0.000581 0.000002 0.000000 0.000000
0.207181 0.043120 0.000634 0.000002 0.000000 0.000000
0.209135 0.042897 0.000763 0.000002 0.000000 0.000000
0.210499 0.043057 0.000610 0.000002 0.000000 0.000000
0.211577 0.043404 0.000516 0.000002 0.000000 0.000000
0.212493 0.044496 0.000758 0.000003 0.000000 0.000000
0.214176 0.043254 0.000709 0.000002 0.000000 0.000000
0.215526 0.042709 0.000742 0.000002 0.000000 0.000000
0.217034 0.042988 0.000790 0.000002 0.000000 0.000000
0.218558 0.043044 0.000722 0.000002 0.000000 0.000000
0.220119 0.043483 0.000641 0.000002 0.000000 0.000000
0.221449 0.042625 0.000784 0.000002 0.000000 0.000000
0.222994 0.042697 0.000739 0.000002 0.000000 0.000000
0.005618 0.044670 0.000725 0.000004 0.000000 0.000000
0.007005 0.043882 0.000854 0.000003 0.000000 0.000000
0.008755 0.044288 0.000738 0.000004 0.000000 0.000000
0.009957 0.043829 0.000541 0.000002 0.000000 0.000000
0.011024 0.043307 0.000639 0.000002 0.000000 0.000000
0.012301 0.044101 0.000672 0.000002 0.000000 0.000000
0.014089 0.044225 0.000638 0.000002 0.000000 0.000000
0.015330 0.044148 0.000603 0.000002 0.000000 0.000000
0.016270 0.044969 0.000628 0.000000 0.000000 0.000000
0.017471 0.044468 0.000665 0.000002 0.000000 0.000000
0.018911 0.044751 0.000711 0.000003 0.000000 0.000000
0.020264 0.045226 0.000722 0.000002 0.000000 0.000000
0.021842 0.045097 0.000856 0.000003 0.000000 0.000000
0.023529 0.044804 0.000840 0.000003 0.000000 0.000000
0.024945 0.045107 0.000605 0.000002 0.000000 0.000000
0.026278 0.045324 0.000745 0.000002 0.000000 0.000000
0.027721 0.044992 0.000735 0.000002 0.000000 0.000000
0.029150 0.044984 0.000693 0.000002 0.000000 0.000000
0.030580 0.044990 0.000736 0.000002 0.000000 0.000000
0.031917 0.044849 0.000603 0.000002 0.000000 0.000000
0.033285 0.045109 0.000776 0.000003 0.000000 0.000000
0.034818 0.045031 0.000758 0.000003 0.000000 0.000000
0.036426 0.045077 0.000711 0.000003 0.000000 0.000000
0.037891 0.045029 0.000752 0.000002 0.000000 0.000000
0.039452 0.045082 0.000805 0.000003 0.000000 0.000000
0.040899 0.044486 0.000686 0.000003 0.000000 0.000000
0.042288 0.044103 0.000750 0.000003 0.000000 0.000000
0.043804 0.043510 0.000586 0.000002 0.000000 0.000000
0.045054 0.043239 0.000692 0.000002 0.000000 0.000000
0.046813 0.044250 0.000697 0.000002 0.000000 0.000000
0.047910 0.045224 0.000762 0.000003 0.000000 0.000000
0.049218 0.044597 0.000685 0.000003 0.000000 0.000000
0.051891 0.044913 0.000701 0.000004 0.000000 0.000000
0.053303 0.044391 0.000802 0.000003 0.000000 0.000000
0.054778 0.043501 0.000700 0.000002 0.000000 0.000000
0.056082 0.043335 0.000613 0.000002 0.000000 0.000000
0.057426 0.043491 0.000739 0.000002 0.000000 0.000000
0.058932 0.043518 0.000749 0.000002 0.000000 0.000000
0.060458 0.043638 0.000714 0.000002 0.000000 0.000000
0.061936 0.043706 0.000643 0.000002 0.000000 0.000000
0.063243 0.043786 0.000654 0.000002 0.000000 0.000000
0.064596 0.043894 0.000702 0.000002 0.000000 0.000000
0.065971 0.043497 0.000729 0.000002 -0.020731 -0.000000
0.067376 0.043619 0.000682 0.000002 0.000000 0.000000
0.068609 0.044185 0.000670 0.000004 0.000000 0.000000
0.070043 0.043905 0.000790 0.000002 0.000000 0.000000
0.071529 0.044131 0.000685 0.000002 0.000000 0.000000
0.072576 0.045242 0.000792 0.000003 0.000000 0.000000
0.074749 0.044496 0.000701 0.000003 0.000000 0.000000
0.076134 0.045293 0.000793 0.000003 0.000000 0.000000
0.079981 0.045228 0.000662 0.000003 0.000000 0.000000
0.081388 0.045300 0.000746 0.000002 0.000000 0.000000
0.082780 0.044821 0.000723 0.000003 0.000000 0.000000
0.084073 0.044438 0.000626 0.000003 0.000000 0.000000
0.085427 0.044202 0.000656 0.000004 0.000000 0.000000
0.087120 0.043900 0.000729 0.000002 0.000000 0.000000
0.088584 0.043759 0.000734 0.000002 0.000000 0.000000
0.089920 0.044091 0.000599 0.000002 0.000000 0.000000
0.091326 0.043425 0.000696 0.000002 0.000000 0.000000
0.093547 0.043961 0.000585 0.000002 0.000000 0.000000
0.094679 0.044480 0.000657 0.000002 0.000000 0.000000
0.096085 0.044642 0.000688 0.000004 0.000000 0.000000
0.097875 0.044431 0.000721 0.000003 0.000000 0.000000
0.098986 0.045233 0.000641 0.000003 0.000000 0.000000
0.100299 0.044826 0.000733 0.000003 0.050727 0.000000
0.101677 0.044840 0.000644 0.000002 0.000000 0.000000
0.102957 0.045387 0.000748 0.000003 0.000000 0.000000
0.104001 0.044483 0.000626 0.000002 0.000000 0.000000
0.105337 0.044646 0.000715 0.000003 0.000000 0.000000
0.106706 0.044340 0.000684 0.000003 0.000000 0.000000
0.108076 0.044573 0.000705 0.000003 0.000000 0.000000
0.109537 0.044582 0.000756 0.000003 0.000000 0.000000
0.110895 0.045031 0.000671 0.000004 0.000000 0.000000
0.113790 0.045044 0.000626 0.000003 0.000000 0.000000
0.114996 0.044989 0.000545 0.000003 0.000000 0.000000
0.122057 0.044686 0.000633 0.000004 0.000000 0.000000
0.123431 0.044699 0.000696 0.000003 0.000000 0.000000
0.125018 0.044451 0.000700 0.000003 0.000000 0.000000
0.126543 0.044350 0.000808 0.000003 0.000000 0.000000
0.128059 0.044641 0.000734 0.000004 0.000000 0.000000
0.129530 0.044667 0.000737 0.000003 0.000000 0.000000
0.131133 0.044739 0.000725 0.000003 0.000000 0.000000
0.132621 0.044954 0.000769 0.000003 0.000000 0.000000
0.134114 0.044932 0.000700 0.000003 0.000000 0.000000
0.135769 0.044943 0.000793 0.000003 0.000000 0.000000
0.137189 0.044799 0.000622 0.000003 0.000000 0.000000
0.142965 0.045334 0.000679 0.000000 0.000000 0.000000
0.144137 0.044639 0.000675 0.000003 0.000000 0.000000
0.145616 0.044358 0.000689 0.000003 0.000000 0.000000
0.146951 0.044973 0.000780 0.000004 0.000000 0.000000
0.148433 0.044481 0.000719 0.000003 0.000000 0.000000
0.149857 0.044218 0.000726 0.000003 0.000000 0.000000
0.151196 0.043716 0.000704 0.000002 0.000000 0.000000
0.153632 0.043899 0.000651 0.000002 0.000000 0.000000
0.154850 0.043255 0.000699 0.000002 0.000000 0.000000
0.156230 0.043738 0.000731 0.000002 0.000000 0.000000
0.157599 0.043986 0.000611 0.000002 0.000000 0.000000
0.158596 0.045064 0.000851 0.000003 0.000000 0.000000
0.161634 0.044698 0.000727 0.000003 0.000000 0.000000
0.163057 0.045240 0.000780 0.000003 0.000000 0.000000
0.165701 0.045327 0.000778 0.000003 0.000000 0.000000
0.167155 0.044648 0.000689 0.000003 0.000000 0.000000
0.168515 0.044943 0.000689 0.000003 0.000000 0.000000
0.169726 0.044187 0.000638 0.000003 0.000000 0.000000
0.171401 0.044291 0.000839 0.000004 0.000000 0.000000
0.173602 0.045283 0.000764 0.000003 0.000000 0.000000
0.175145 0.045216 0.000779 0.000003 0.000000 0.000000
0.176631 0.044896 0.000740 0.000003 0.000000 0.000000
0.184555 0.044621 0.000651 0.000004 0.000000 0.000000
0.185941 0.044105 0.000731 0.000002 0.000000 0.000000
0.187268 0.044953 0.000745 0.000000 0.000000 0.000000
0.196758 0.045222 0.000719 0.000003 0.000000 0.000000
0.198139 0.044656 0.000729 0.000003 0.000000 0.000000
0.199721 0.044133 0.000692 0.000004 0.000000 0.000000
0.201037 0.043729 0.000624 0.000000 0.000000 0.000000
0.202434 0.043974 0.000780 0.000004 0.000000 0.000000
0.203821 0.044059 0.000605 0.000004 0.000000 0.000000
0.205341 0.044125 0.000734 0.000003 0.000000 0.000000
0.206728 0.044350 0.000665 0.000003 0.000000 0.000000
0.208184 0.044054 0.000730 0.000003 0.000000 0.000000
0.209542 0.044268 0.000631 0.000003 0.000000 0.000000
0.210878 0.044414 0.000712 0.000003 0.000000 0.000000
0.213951 0.044876 0.000734 0.000003 0.000000 0.000000
0.215171 0.044053 0.000566 0.000002 0.000000 0.000000
0.216437 0.044542 0.000790 0.000003 0.000000 0.000000
0.217851 0.044232 0.000658 0.000003 0.000000 0.000000
0.219160 0.044354 0.000651 0.000003 0.000000 0.000000
0.220952 0.044888 0.000721 0.000003 0.000000 0.000000
0.222206 0.043903 0.000702 0.000003 0.000000 0.000000
0.223684 0.043956 0.000682 0.000001 0.000000 0.000000
0.010913 0.044673 0.000686 0.000003 0.000000 0.000000
0.012016 0.045342 0.000600 0.000002 -0.507796 -0.000001
0.013240 0.045190 0.000634 0.000002 0.000000 0.000000
0.044008 0.044803 0.000673 0.000004 0.000000 0.000000
0.045456 0.044854 0.000775 0.000003 0.000000 0.000000
0.055298 0.044664 0.000565 0.000003 0.000000 0.000000
0.056520 0.044573 0.000658 0.000003 0.000000 0.000000
0.058162 0.044649 0.000613 0.000003 0.000000 0.000000
0.059541 0.044953 0.000798 0.000003 0.000000 0.000000
0.061140 0.044995 0.000799 0.000003 0.000000 0.000000
0.062630 0.044984 0.000689 0.000002 0.000000 0.000000
0.064012 0.045145 0.000674 0.000002 0.000000 0.000000
0.065425 0.044968 0.000654 0.000002 0.000000 0.000000
0.066686 0.044735 0.000627 0.000003 0.000000 0.000000
0.070640 0.045288 0.000685 0.000000 0.000000 0.000000
0.087937 0.045102 0.000719 0.000003 0.000000 0.000000
0.089318 0.045220 0.000665 0.000003 0.000000 0.000000
0.091033 0.044769 0.000678 0.000003 0.000000 0.000000
0.092340 0.044361 0.000678 0.000002 0.000000 0.000000
0.093526 0.045216 0.000627 0.000000 0.000000 0.000000
0.151091 0.045134 0.000689 0.000000 0.000000 0.000000
0.152400 0.044380 0.000664 0.000002 0.000000 0.000000
0.153690 0.045271 0.000722 0.000003 0.000000 0.000000
0.155078 0.044713 0.000757 0.000003 0.000000 0.000000
0.156763 0.045249 0.000852 0.000003 0.000000 0.000000
