Grain x, y, Radius, Tesselation area, Stress 22, M22 
0.000726 0.000727 0.000727 0.000002 1352.778233 0.003013
0.002214 0.000760 0.000761 0.000002 2289.643585 0.004745
0.003624 0.000653 0.000653 0.000002 1127.194131 0.002167
0.005071 0.000780 0.000780 0.000002 0.031270 0.000000
0.006487 0.000641 0.000642 0.000002 1178.364664 0.002364
0.007966 0.000775 0.000776 0.000002 1223.544631 0.002526
0.009371 0.000636 0.000636 0.000002 825.776068 0.001483
0.010626 0.000619 0.000619 0.000002 0.027245 0.000000
0.012088 0.000841 0.000842 0.000002 2112.524680 0.004796
0.013637 0.000713 0.000713 0.000002 -1.021080 -0.000002
0.015155 0.000808 0.000809 0.000002 1153.161653 0.002490
0.016657 0.000697 0.000698 0.000002 485.763379 0.000994
0.018206 0.000861 0.000861 0.000002 783.658945 0.001822
0.019718 0.000586 0.000587 0.000002 1880.303725 0.003604
0.021103 0.000817 0.000817 0.000002 0.032887 0.000000
0.022645 0.000705 0.000706 0.000002 1265.597251 0.002451
0.024046 0.000696 0.000696 0.000002 314.762154 0.000627
0.025522 0.000782 0.000783 0.000002 386.624535 0.000789
0.026991 0.000690 0.000690 0.000002 0.023666 0.000000
0.028367 0.000685 0.000687 0.000002 2550.224166 0.004641
0.029699 0.000648 0.000648 0.000002 33.082451 0.000058
0.031007 0.000661 0.000661 0.000002 106.125968 0.000200
0.032432 0.000769 0.000770 0.000002 3155.911721 0.006426
0.033818 0.000625 0.000626 0.000002 628.347336 0.001099
0.035124 0.000684 0.000684 0.000002 986.432517 0.001959
0.036605 0.000879 0.000811 0.000002 687.206132 0.001570
0.038066 0.000667 0.000667 0.000002 1300.059538 0.002434
0.039359 0.000628 0.000628 0.000002 1211.376788 0.002174
0.040819 0.000851 0.000851 0.000002 859.645781 0.002139
0.042355 0.000694 0.000694 0.000002 295.697537 0.000601
0.043797 0.000831 0.000755 0.000002 394.560199 0.000799
0.045156 0.000621 0.000622 0.000002 2634.945298 0.004510
0.046407 0.000629 0.000629 0.000002 7.614886 0.000013
0.047751 0.000718 0.000719 0.000002 688.469590 0.001344
0.049068 0.001042 0.000638 0.000002 478.370866 0.001022
0.050390 0.000722 0.000722 0.000002 891.594284 0.001833
0.051814 0.000703 0.000703 0.000002 1127.412510 0.002121
0.053239 0.000722 0.000722 0.000002 904.921481 0.001685
0.054626 0.000666 0.000666 0.000002 1711.324058 0.003155
0.055999 0.000708 0.000709 0.000002 883.917353 0.001634
0.057480 0.000775 0.000776 0.000002 1193.487260 0.002510
0.058983 0.000730 0.000730 0.000002 247.262658 0.000504
0.060356 0.000648 0.000648 0.000002 30.242015 0.000061
0.061796 0.000801 0.000802 0.000002 3399.611628 0.007391
0.063258 0.000667 0.000667 0.000002 20.230333 0.000042
0.064735 0.000819 0.000819 0.000002 1527.870093 0.003324
0.066192 0.000640 0.000640 0.000002 0.019877 0.000000
0.067733 0.000618 0.000619 0.000002 2307.766722 0.003715
0.068913 0.000562 0.000562 0.000001 631.121788 0.000904
0.070157 0.000724 0.000693 0.000002 13.003785 0.000023
0.071606 0.000756 0.000757 0.000002 1904.553207 0.003737
0.072980 0.000623 0.000623 0.000002 1.110740 0.000002
0.074277 0.000676 0.000676 0.000002 293.278477 0.000477
0.075660 0.000708 0.000708 0.000002 23.924847 0.000042
0.076915 0.000556 0.000556 0.000002 1.739113 0.000003
0.078226 0.000771 0.000772 0.000002 1890.742096 0.003970
0.079767 0.000769 0.000770 0.000002 1794.273294 0.003758
0.081242 0.000706 0.000707 0.000002 2054.492201 0.004059
0.082767 0.000810 0.000810 0.000002 -0.213400 -0.000001
0.084355 0.000778 0.000778 0.000002 161.599561 0.000379
0.085851 0.000718 0.000719 0.000002 703.186716 0.001518
0.087400 0.000834 0.000835 0.000002 1119.900901 0.002509
0.088950 0.000706 0.000706 0.000002 0.019096 0.000000
0.090519 0.000852 0.000853 0.000002 1250.064281 0.003052
0.092170 0.000799 0.000800 0.000002 1190.296723 0.002885
0.093712 0.000743 0.000743 0.000002 29.821344 0.000067
0.095269 0.000816 0.000816 0.000002 933.185928 0.002072
0.096716 0.000641 0.000641 0.000002 177.096235 0.000329
0.098075 0.000719 0.000720 0.000002 3394.702272 0.006742
0.099540 0.000746 0.000746 0.000002 0.039764 0.000000
0.101032 0.000747 0.000747 0.000002 782.593038 0.001554
0.102531 0.000752 0.000751 0.000002 12.141839 0.000024
0.103902 0.000626 0.000627 0.000002 722.544829 0.001261
0.105292 0.000733 0.000734 0.000002 2791.884799 0.005062
0.106670 0.000649 0.000649 0.000002 136.886328 0.000248
0.108053 0.000738 0.000739 0.000002 933.502712 0.001776
0.109406 0.000622 0.000622 0.000002 10.803135 0.000018
0.110721 0.000696 0.000697 0.000002 1344.118997 0.002353
0.112215 0.000802 0.000803 0.000002 1186.543886 0.002563
0.113659 0.000650 0.000651 0.000002 1026.042623 0.001901
0.114981 0.000672 0.000673 0.000002 420.068763 0.000793
0.116441 0.000791 0.000793 0.000002 2450.211806 0.005923
0.118052 0.000819 0.000819 0.000002 36.375031 0.000085
0.119584 0.000716 0.000716 0.000002 622.639345 0.001163
0.120844 0.000540 0.000540 0.000002 552.389269 0.000850
0.122149 0.000788 0.000788 0.000002 250.959457 0.000538
0.123672 0.000735 0.000736 0.000002 1945.027432 0.004235
0.125189 0.000782 0.000782 0.000002 206.188156 0.000468
0.126788 0.000817 0.000818 0.000002 1102.550025 0.002475
0.128294 0.000694 0.000694 0.000002 1.631746 0.000003
0.129744 0.000757 0.000758 0.000002 2381.381911 0.004900
0.131224 0.000724 0.000724 0.000002 3.583197 0.000007
0.132746 0.000801 0.000802 0.000002 2130.607871 0.004475
0.134217 0.000674 0.000675 0.000002 1886.470766 0.003570
0.135665 0.000777 0.000777 0.000002 0.021153 0.000000
0.137217 0.000679 0.000679 0.000002 459.152806 0.000907
0.138708 0.000818 0.000819 0.000002 1406.455234 0.003060
0.140235 0.000711 0.000711 0.000002 141.799793 0.000297
0.141696 0.000751 0.000751 0.000002 863.324193 0.001917
0.143311 0.000817 0.000817 0.000002 0.016693 0.000000
0.144875 0.000744 0.000744 0.000002 537.760581 0.001090
0.146293 0.000672 0.000672 0.000002 888.843749 0.001696
0.147757 0.000796 0.000796 0.000002 1153.608348 0.002511
0.149374 0.000718 0.000719 0.000002 2543.500011 0.005136
0.150753 0.000661 0.000662 0.000002 83.183450 0.000150
0.152111 0.000697 0.000698 0.000002 736.324212 0.001270
0.153449 0.000643 0.000643 0.000002 169.885047 0.000269
0.154680 0.000589 0.000590 0.000002 833.891335 0.001278
0.155904 0.000637 0.000637 0.000002 10.979159 0.000018
0.157272 0.000736 0.000736 0.000002 538.158951 0.000984
0.158672 0.000667 0.000667 0.000002 1559.120465 0.003061
0.160125 0.000793 0.000793 0.000002 487.987891 0.001031
0.161630 0.000714 0.000715 0.000002 2189.435716 0.004472
0.163063 0.000720 0.000720 0.000002 42.371051 0.000083
0.164495 0.000714 0.000715 0.000002 1271.944730 0.002699
0.165954 0.000980 0.000770 0.000002 516.331327 0.001167
0.167438 0.000736 0.000736 0.000002 877.646278 0.001783
0.168872 0.000699 0.000699 0.000002 253.624004 0.000466
0.170339 0.000770 0.000771 0.000002 466.073776 0.000958
0.171847 0.000738 0.000738 0.000002 112.383319 0.000223
0.173238 0.000656 0.000656 0.000002 3.389662 0.000006
0.174590 0.000697 0.000697 0.000002 1380.952043 0.002643
0.176054 0.000768 0.000768 0.000002 329.947106 0.000688
0.177600 0.000778 0.000779 0.000002 1561.399482 0.003411
0.179089 0.000960 0.000723 0.000002 245.995054 0.000533
0.180499 0.000710 0.000710 0.000002 718.453651 0.001455
0.181904 0.000694 0.000695 0.000002 913.859594 0.001779
0.183322 0.000724 0.000725 0.000002 1632.713136 0.002929
0.184537 0.000509 0.000510 0.000001 1285.391944 0.001821
0.185783 0.000762 0.000762 0.000002 1096.164965 0.002178
0.187185 0.000645 0.000645 0.000002 0.055919 0.000000
0.188555 0.000726 0.000726 0.000002 251.431221 0.000466
0.190001 0.000720 0.000720 0.000002 219.190638 0.000417
0.191411 0.000688 0.000688 0.000002 852.620900 0.001587
0.192961 0.000767 0.000767 0.000002 211.517000 0.000438
0.194475 0.000747 0.000748 0.000002 1159.891007 0.002374
0.195949 0.000727 0.000727 0.000002 99.672011 0.000210
0.197430 0.000753 0.000753 0.000002 888.906744 0.001787
0.198860 0.000679 0.000679 0.000002 0.038684 0.000000
0.200079 0.000544 0.000544 0.000001 0.018850 0.000000
0.201379 0.000658 0.000659 0.000002 1017.298435 0.001632
0.202697 0.000653 0.000653 0.000002 693.972959 0.001196
0.204066 0.000718 0.000718 0.000002 23.256901 0.000043
0.205457 0.000674 0.000674 0.000002 97.063216 0.000166
0.206697 0.000569 0.000569 0.000002 106.577171 0.000171
0.208144 0.000730 0.000730 0.000002 156.097848 0.000270
0.209507 0.000603 0.000603 0.000002 0.044892 0.000000
0.210788 0.000677 0.000677 0.000002 300.270555 0.000576
0.212244 0.000782 0.000783 0.000002 872.625897 0.001841
0.213646 0.000625 0.000626 0.000002 578.035800 0.001129
0.215603 0.000601 0.000602 0.000002 875.806303 0.001526
0.216853 0.000651 0.000649 0.000002 0.000000 0.000000
0.218168 0.000666 0.000666 0.000002 722.508277 0.001155
0.219386 0.000556 0.000557 0.000001 474.718107 0.000692
0.220618 0.000682 0.000682 0.000002 40.753013 0.000072
0.222033 0.000738 0.000732 0.000002 0.000000 0.000000
0.224711 0.000696 0.000696 0.000002 759.585663 0.001461
0.001250 0.002107 0.000750 0.000002 1115.003540 0.002563
0.002684 0.002125 0.000684 0.000002 2388.171502 0.004349
0.004093 0.001960 0.000736 0.000002 384.552737 0.000748
0.005482 0.002312 0.000700 0.000002 947.112922 0.001922
0.006970 0.002019 0.000819 0.000002 1893.384883 0.003743
0.008467 0.002148 0.000686 0.000002 601.842400 0.001106
0.009921 0.001944 0.000784 0.000002 214.256710 0.000433
0.011362 0.002173 0.000677 0.000002 2038.180266 0.004006
0.012842 0.002268 0.000772 0.000002 331.402789 0.000736
0.014364 0.002156 0.000754 0.000002 144.825260 0.000299
0.015715 0.002097 0.000599 0.000002 1350.405675 0.002371
0.016893 0.001961 0.000588 0.000002 125.790545 0.000225
0.018048 0.002344 0.000630 0.000002 1250.072941 0.002179
0.019478 0.001994 0.000843 0.000002 1547.593652 0.003141
0.021005 0.002363 0.000731 0.000002 2297.253448 0.004184
0.022194 0.001880 0.000555 0.000002 77.635281 0.000123
0.023515 0.002077 0.000783 0.000002 590.063746 0.001065
0.024919 0.002052 0.000623 0.000002 0.250018 0.000000
0.026222 0.002068 0.000682 0.000002 413.482254 0.000732
0.027692 0.001997 0.000791 0.000002 2174.999833 0.004178
0.029198 0.001918 0.000718 0.000002 0.000000 0.000000
0.030685 0.002040 0.000756 0.000002 54.252258 0.000108
0.032175 0.002225 0.000712 0.000002 3071.115176 0.005869
0.033542 0.001913 0.000692 0.000002 35.232997 0.000067
0.034988 0.002132 0.000772 0.000002 868.330005 0.001737
0.036414 0.002348 0.000671 0.000002 1164.853660 0.002228
0.037774 0.002029 0.000728 0.000002 773.794088 0.001404
0.039180 0.001926 0.000683 0.000002 870.630376 0.001739
0.041606 0.002197 0.000709 0.000002 1216.255826 0.002565
0.042911 0.001897 0.000632 0.000002 469.291689 0.000771
0.044235 0.002262 0.000742 0.000002 466.240126 0.000876
0.045606 0.001851 0.000690 0.000002 2458.905992 0.004599
0.046988 0.001908 0.000695 0.000002 415.349682 0.000766
0.048378 0.002348 0.000765 0.000002 647.549809 0.001284
0.049952 0.002198 0.000818 0.000002 1450.807162 0.002916
0.051446 0.002042 0.000686 0.000002 1176.141743 0.002047
0.052665 0.001855 0.000549 0.000002 50.596126 0.000082
0.054053 0.002077 0.000858 0.000002 2567.252225 0.005218
0.055459 0.001862 0.000566 0.000002 682.011917 0.001107
0.056697 0.002001 0.000680 0.000002 1718.079339 0.003157
0.058105 0.002152 0.000736 0.000002 0.907582 0.000002
0.059562 0.002064 0.000725 0.000002 171.633988 0.000349
0.061085 0.002245 0.000809 0.000002 1428.272352 0.003071
0.062684 0.002108 0.000780 0.000002 2229.606381 0.004491
0.064147 0.002232 0.000688 0.000002 38.379648 0.000076
0.065578 0.002137 0.000747 0.000002 2070.965184 0.004021
0.067003 0.001751 0.000730 0.000002 865.837081 0.001506
0.068437 0.001714 0.000685 0.000001 1549.446765 0.002293
0.069657 0.001855 0.000544 0.000001 5.180483 0.000008
0.070852 0.001947 0.000654 0.000002 563.847175 0.001030
0.072325 0.002108 0.000776 0.000002 1405.933383 0.002787
0.073570 0.001670 0.000544 0.000001 2.437130 0.000004
0.074709 0.001894 0.000617 0.000002 229.790615 0.000364
0.075927 0.001993 0.000605 0.000002 0.755785 0.000001
0.077355 0.002111 0.000827 0.000002 1370.617309 0.002889
0.079001 0.002126 0.000789 0.000002 955.717886 0.001988
0.080419 0.001972 0.000600 0.000002 1590.261989 0.002725
0.081619 0.001956 0.000600 0.000002 2154.861595 0.003568
0.082904 0.002370 0.000752 0.000002 561.089116 0.001125
0.084369 0.002275 0.000718 0.000002 267.289700 0.000558
0.085746 0.002103 0.000670 0.000002 398.858551 0.000735
0.087033 0.002249 0.000627 0.000002 855.821816 0.001497
0.088258 0.002010 0.000622 0.000002 653.689922 0.001169
0.089608 0.002154 0.000738 0.000002 1481.581948 0.002850
0.091034 0.002314 0.000698 0.000002 316.379652 0.000635
0.092406 0.002255 0.000676 0.000002 1168.167210 0.002201
0.093740 0.002148 0.000662 0.000002 0.000000 0.000000
0.095075 0.002253 0.000635 0.000002 1013.250900 0.001811
0.096399 0.001965 0.000720 0.000002 1.675812 0.000003
0.097767 0.002052 0.000651 0.000002 3311.192750 0.006519
0.099182 0.002264 0.000781 0.000002 404.255261 0.000812
0.100512 0.001969 0.000581 0.000002 0.005892 0.000000
0.101771 0.001967 0.000679 0.000002 596.322842 0.000999
0.103117 0.002046 0.000670 0.000002 294.351636 0.000480
0.104412 0.001796 0.000650 0.000002 4039.270422 0.006459
0.105826 0.001980 0.000622 0.000002 0.159031 0.000000
0.107188 0.001937 0.000740 0.000002 376.544953 0.000675
0.108703 0.002091 0.000763 0.000002 892.669613 0.001789
0.109941 0.001663 0.000548 0.000001 705.680512 0.000978
0.111052 0.001948 0.000599 0.000001 468.181216 0.000694
0.112262 0.002252 0.000649 0.000002 1324.307734 0.002183
0.113604 0.002014 0.000715 0.000002 863.449709 0.001651
0.115004 0.002031 0.000686 0.000002 216.687770 0.000436
0.116466 0.002405 0.000823 0.000002 2430.692849 0.005091
0.117878 0.002223 0.000595 0.000002 19.434559 0.000037
0.119210 0.002041 0.000661 0.000002 337.868034 0.000608
0.120561 0.001765 0.000717 0.000002 785.247428 0.001440
0.121902 0.002274 0.000718 0.000002 272.129029 0.000525
0.123326 0.002133 0.000706 0.000002 1941.346117 0.003588
0.124715 0.002169 0.000683 0.000002 200.435717 0.000373
0.126099 0.002171 0.000702 0.000002 720.252724 0.001363
0.127553 0.002078 0.000658 0.000002 460.431089 0.000863
0.128971 0.002062 0.000761 0.000002 1926.601946 0.003756
0.130538 0.002010 0.000727 0.000002 574.859301 0.001056
0.131920 0.001999 0.000655 0.000002 899.383076 0.001577
0.133489 0.002034 0.000639 0.000002 1414.373248 0.002448
0.134732 0.001857 0.000617 0.000002 1813.411901 0.002929
0.135650 0.002809 0.000708 0.000002 2173.633994 0.003878
0.136599 0.001848 0.000644 0.000002 4.965035 0.000009
0.137885 0.002044 0.000657 0.000002 3.217326 0.000006
0.139194 0.002216 0.000663 0.000002 1521.218405 0.002733
0.140523 0.002066 0.000675 0.000002 4.660929 0.000009
0.141877 0.002174 0.000684 0.000002 828.197339 0.001420
0.143194 0.002342 0.000644 0.000002 336.271755 0.000575
0.144443 0.002056 0.000638 0.000002 377.769398 0.000666
0.145761 0.001922 0.000687 0.000002 875.089583 0.001504
0.147075 0.002052 0.000633 0.000002 0.000000 0.000000
0.148698 0.002017 0.000747 0.000002 3952.001355 0.007922
0.150174 0.001929 0.000732 0.000002 1.136320 0.000002
0.151584 0.001969 0.000679 0.000002 857.467219 0.001499
0.152878 0.001780 0.000629 0.000002 1.571541 0.000003
0.154232 0.001826 0.000727 0.000002 671.355085 0.001175
0.155626 0.001954 0.000674 0.000002 130.187981 0.000235
0.156809 0.001894 0.000512 0.000002 496.479591 0.000758
0.158125 0.002039 0.000811 0.000002 1519.480691 0.002899
0.159556 0.002087 0.000621 0.000002 0.000000 0.000000
0.161031 0.002106 0.000802 0.000002 2851.414850 0.005795
0.162494 0.001983 0.000666 0.000002 0.482218 0.000001
0.163910 0.002058 0.000752 0.000002 1209.613147 0.002325
0.165500 0.002267 0.000596 0.000002 450.556746 0.000822
0.166884 0.002137 0.000715 0.000002 89.788336 0.000157
0.168220 0.001875 0.000646 0.000002 1229.432853 0.002044
0.169486 0.001855 0.000610 0.000002 560.667834 0.001009
0.171153 0.002036 0.000734 0.000002 294.512571 0.000580
0.172603 0.001981 0.000717 0.000002 0.157956 0.000000
0.174062 0.002035 0.000743 0.000002 1358.689165 0.002487
0.175428 0.002011 0.000624 0.000002 0.000000 0.000000
0.176809 0.002084 0.000750 0.000002 2251.300235 0.004185
0.178238 0.002069 0.000660 0.000002 0.000000 0.000000
0.179776 0.002147 0.000649 0.000002 264.161614 0.000482
0.181233 0.002042 0.000812 0.000002 1617.032528 0.003300
0.182739 0.002017 0.000695 0.000002 1197.238098 0.002327
0.184365 0.001729 0.000723 0.000002 1265.195301 0.002456
0.185166 0.002975 0.000759 0.000002 1330.446658 0.002963
0.186364 0.002118 0.000714 0.000002 663.327965 0.001316
0.187725 0.001852 0.000673 0.000002 185.526400 0.000324
0.189295 0.001880 0.000638 0.000002 0.000000 0.000000
0.190769 0.001992 0.000766 0.000002 796.630164 0.001495
0.192069 0.001745 0.000557 0.000002 521.554106 0.000885
0.193836 0.001976 0.000639 0.000002 494.269707 0.000981
0.195251 0.002061 0.000779 0.000002 619.545074 0.001211
0.196797 0.002138 0.000770 0.000002 851.746562 0.001644
0.198199 0.001924 0.000649 0.000002 244.615270 0.000432
0.199464 0.001830 0.000620 0.000002 1.017014 0.000002
0.200707 0.001751 0.000625 0.000002 525.492550 0.000868
0.202049 0.001844 0.000704 0.000002 1526.553128 0.002644
0.203421 0.001949 0.000672 0.000002 0.000000 0.000000
0.204838 0.001951 0.000737 0.000002 2.096307 0.000004
0.206290 0.001796 0.000723 0.000002 305.029023 0.000492
0.207539 0.001831 0.000526 0.000001 142.693671 0.000207
0.208996 0.001647 0.000521 0.000001 0.000000 0.000000
0.210211 0.001948 0.000720 0.000002 233.622949 0.000411
0.211834 0.002276 0.000767 0.000002 703.677752 0.001535
0.213314 0.001958 0.000748 0.000002 538.714565 0.001094
0.214711 0.001556 0.000706 0.000002 302.136404 0.000558
0.216124 0.001790 0.000697 0.000002 312.710733 0.000524
0.218997 0.001748 0.000697 0.000002 712.196571 0.001272
0.220268 0.001897 0.000583 0.000002 29.305671 0.000049
0.221514 0.002233 0.000709 0.000002 373.964835 0.000694
0.223388 0.000627 0.000627 0.000002 563.847108 0.000988
0.226613 0.000820 0.000820 0.000002 92.745707 0.000226
0.228268 0.000818 0.000818 0.000002 50.260186 0.000122
0.000704 0.003455 0.000705 0.000002 1527.265276 0.003269
0.002016 0.003248 0.000625 0.000002 2690.738008 0.004705
0.003484 0.003325 0.000759 0.000002 680.049782 0.001295
0.004928 0.003645 0.000720 0.000002 1.064492 0.000002
0.006359 0.003435 0.000725 0.000002 3022.464996 0.005825
0.007735 0.003210 0.000596 0.000002 40.962122 0.000064
0.008967 0.003383 0.000647 0.000002 579.301332 0.001028
0.010450 0.003479 0.000839 0.000002 130.200923 0.000287
0.011939 0.003370 0.000654 0.000002 2687.730781 0.004750
0.013104 0.004016 0.000679 0.000002 674.422513 0.001292
0.014414 0.003604 0.000695 0.000002 5.228469 0.000011
0.015879 0.003462 0.000777 0.000002 946.172456 0.001951
0.017467 0.003679 0.000827 0.000002 1265.182171 0.002634
0.018887 0.003344 0.000632 0.000002 1285.318260 0.002202
0.020096 0.003303 0.000577 0.000002 0.000000 0.000000
0.021280 0.003685 0.000621 0.000001 1705.115259 0.002541
0.022453 0.003094 0.000687 0.000002 0.000000 0.000000
0.024182 0.003275 0.000588 0.000002 500.392070 0.000882
0.025496 0.003276 0.000727 0.000002 0.222979 0.000000
0.026912 0.003254 0.000690 0.000002 1350.190046 0.002472
0.028570 0.003223 0.000719 0.000002 1064.481882 0.002035
0.029990 0.003328 0.000707 0.000002 66.247844 0.000122
0.031398 0.003405 0.000704 0.000002 3188.500838 0.005607
0.032822 0.003456 0.000678 0.000002 121.375383 0.000210
0.034127 0.003253 0.000642 0.000002 272.552803 0.000501
0.035606 0.003587 0.000809 0.000002 1229.016341 0.002449
0.037276 0.003468 0.000743 0.000002 433.116470 0.000842
0.038602 0.003107 0.000632 0.000002 1293.653631 0.002235
0.039982 0.003111 0.000748 0.000002 445.651663 0.000938
0.041348 0.003577 0.000696 0.000002 1935.643567 0.003482
0.042602 0.003128 0.000637 0.000002 48.007609 0.000078
0.043759 0.003489 0.000575 0.000002 500.845831 0.000810
0.045366 0.003320 0.000800 0.000002 1849.013816 0.003719
0.046887 0.003321 0.000722 0.000002 42.059396 0.000080
0.048114 0.003627 0.000542 0.000002 846.336060 0.001296
0.049356 0.003595 0.000701 0.000002 1109.782484 0.002064
0.050959 0.003355 0.000715 0.000002 982.549746 0.001886
0.052297 0.003074 0.000652 0.000002 164.162822 0.000288
0.053605 0.003644 0.000775 0.000002 2376.447424 0.005263
0.055228 0.003121 0.000714 0.000002 738.811167 0.001460
0.056686 0.003464 0.000784 0.000002 1460.159372 0.002849
0.058067 0.003600 0.000605 0.000002 55.413385 0.000098
0.059322 0.003430 0.000662 0.000002 56.458020 0.000106
0.060676 0.003719 0.000722 0.000002 1449.740439 0.002785
0.062007 0.003316 0.000605 0.000002 0.000000 0.000000
0.063396 0.003501 0.000787 0.000002 2346.022807 0.004868
0.064917 0.003463 0.000736 0.000002 1194.560688 0.002292
0.066534 0.003200 0.000683 0.000002 949.913953 0.001595
0.067791 0.002849 0.000622 0.000002 1379.399690 0.002186
0.069063 0.002893 0.000652 0.000002 572.038231 0.000971
0.070443 0.003343 0.000800 0.000002 658.487078 0.001461
0.072009 0.003647 0.000796 0.000002 1217.907783 0.002584
0.073441 0.003119 0.000731 0.000002 288.273107 0.000577
0.074916 0.003244 0.000750 0.000002 323.614974 0.000615
0.076334 0.003206 0.000671 0.000002 1181.816664 0.002121
0.077628 0.003593 0.000680 0.000002 495.225219 0.000899
0.078902 0.003508 0.000598 0.000002 879.441324 0.001581
0.080263 0.003317 0.000755 0.000002 1434.644236 0.002706
0.081738 0.003270 0.000721 0.000002 1479.045994 0.002791
0.083044 0.003809 0.000693 0.000002 1010.993372 0.001970
0.084449 0.003707 0.000717 0.000002 353.324213 0.000650
0.085813 0.003445 0.000674 0.000002 4.097452 0.000007
0.087127 0.003515 0.000644 0.000002 983.590493 0.001750
0.088611 0.003432 0.000843 0.000002 349.787281 0.000714
0.090113 0.003457 0.000661 0.000002 1047.412073 0.002011
0.091589 0.003755 0.000847 0.000002 1779.471745 0.003872
0.093030 0.003410 0.000638 0.000002 487.135305 0.000857
0.094356 0.003369 0.000693 0.000002 527.847421 0.000820
0.095649 0.003598 0.000622 0.000002 994.668663 0.001788
0.097109 0.003402 0.000853 0.000002 2453.369995 0.005158
0.098630 0.003624 0.000686 0.000002 404.979024 0.000786
0.100129 0.003551 0.000817 0.000002 695.125216 0.001406
0.101556 0.003268 0.000640 0.000002 0.850469 0.000002
0.102808 0.003293 0.000614 0.000002 1000.107680 0.001609
0.103993 0.002983 0.000613 0.000002 4194.406898 0.006464
0.105234 0.003097 0.000636 0.000002 165.220135 0.000268
0.106490 0.003107 0.000622 0.000002 203.408239 0.000335
0.107834 0.003317 0.000740 0.000002 696.055813 0.001316
0.109123 0.003824 0.000646 0.000002 1937.839112 0.003558
0.110151 0.002918 0.000725 0.000002 26.329269 0.000045
0.111437 0.003170 0.000587 0.000001 746.480272 0.001085
0.113084 0.003389 0.000755 0.000002 1441.133588 0.002697
0.114555 0.003360 0.000716 0.000002 39.532007 0.000080
0.115877 0.003776 0.000670 0.000002 878.121972 0.001617
0.117257 0.003682 0.000681 0.000002 2329.867598 0.004172
0.118638 0.003328 0.000747 0.000002 8.956260 0.000016
0.120171 0.003221 0.000791 0.000002 194.438472 0.000384
0.121516 0.003661 0.000625 0.000002 707.905916 0.001159
0.122741 0.003344 0.000641 0.000002 2388.995975 0.003782
0.124062 0.003366 0.000681 0.000002 140.050147 0.000237
0.125483 0.003479 0.000745 0.000002 510.626875 0.000923
0.126945 0.003322 0.000727 0.000002 698.334723 0.001207
0.128368 0.003388 0.000698 0.000002 1715.647835 0.003101
0.129830 0.003324 0.000766 0.000002 514.815712 0.001012
0.131306 0.003123 0.000625 0.000002 911.887925 0.001636
0.132693 0.003189 0.000763 0.000002 814.761337 0.001544
0.134293 0.003067 0.000671 0.000002 1546.213874 0.002561
0.135172 0.004200 0.000764 0.000002 2230.640666 0.004346
0.136915 0.003469 0.000721 0.000002 806.709410 0.001653
0.138384 0.003377 0.000753 0.000002 398.441841 0.000755
0.139888 0.003451 0.000754 0.000002 1169.381756 0.002161
0.141272 0.003346 0.000636 0.000002 374.497173 0.000588
0.142444 0.003259 0.000541 0.000001 308.626331 0.000417
0.143587 0.003725 0.000695 0.000002 1203.330148 0.002142
0.144923 0.003310 0.000705 0.000002 8.618399 0.000016
0.146353 0.003209 0.000730 0.000002 504.594809 0.000958
0.147892 0.003354 0.000817 0.000002 3471.405096 0.007150
0.149430 0.003291 0.000723 0.000002 640.671543 0.001233
0.150916 0.003247 0.000764 0.000002 518.772932 0.001000
0.152453 0.003138 0.000778 0.000002 214.343041 0.000402
0.153864 0.003135 0.000634 0.000002 604.403164 0.001140
0.155263 0.003367 0.000784 0.000002 67.464927 0.000141
0.157030 0.003101 0.000715 0.000002 755.876828 0.001561
0.158920 0.003363 0.000734 0.000002 746.042276 0.001559
0.160446 0.003608 0.000813 0.000002 1980.892508 0.004580
0.161992 0.003286 0.000720 0.000002 248.360753 0.000477
0.163319 0.003280 0.000607 0.000002 1036.477750 0.001755
0.164689 0.003352 0.000758 0.000002 602.190775 0.001169
0.166185 0.003387 0.000717 0.000002 160.022547 0.000279
0.167534 0.003321 0.000635 0.000002 64.457515 0.000110
0.168911 0.003097 0.000760 0.000002 1605.318524 0.003001
0.170413 0.003337 0.000763 0.000002 438.772441 0.000889
0.171892 0.003286 0.000718 0.000002 2.547754 0.000005
0.173361 0.003355 0.000753 0.000002 995.036481 0.001831
0.174746 0.003233 0.000638 0.000002 44.605843 0.000081
0.176157 0.003483 0.000795 0.000002 2233.470724 0.004386
0.177593 0.003239 0.000645 0.000002 0.000000 0.000000
0.178961 0.003250 0.000723 0.000002 38.187595 0.000069
0.180432 0.003383 0.000751 0.000002 1306.561537 0.002596
0.182133 0.003428 0.000841 0.000002 1233.381214 0.002738
0.183721 0.002958 0.000665 0.000002 816.563594 0.001528
0.185167 0.004483 0.000750 0.000002 1183.330059 0.002291
0.187101 0.003186 0.000584 0.000002 962.902137 0.001730
0.188393 0.003068 0.000715 0.000002 14.157780 0.000025
0.189864 0.003226 0.000766 0.000002 870.100513 0.001732
0.191397 0.003403 0.000778 0.000002 577.587155 0.001190
0.192769 0.002810 0.000717 0.000002 859.443013 0.001706
0.194716 0.003499 0.000755 0.000002 393.997827 0.000851
0.196057 0.003293 0.000603 0.000002 10.178886 0.000017
0.198750 0.003214 0.000754 0.000002 257.190804 0.000494
0.200286 0.003098 0.000787 0.000002 350.385115 0.000681
0.201768 0.003218 0.000700 0.000002 1509.113452 0.002671
0.203093 0.003204 0.000625 0.000002 181.601996 0.000324
0.204448 0.003550 0.000774 0.000002 165.097086 0.000387
0.205767 0.003051 0.000636 0.000002 696.953551 0.001246
0.207111 0.002993 0.000697 0.000002 0.000000 0.000000
0.208380 0.002603 0.000615 0.000001 157.334025 0.000215
0.209496 0.003035 0.000581 0.000001 295.959414 0.000427
0.212443 0.003692 0.000772 0.000003 24.107989 0.000060
0.213881 0.003307 0.000716 0.000002 481.203969 0.001015
0.215229 0.002866 0.000703 0.000002 501.689778 0.000973
0.216786 0.003109 0.000774 0.000002 0.000000 0.000000
0.218307 0.002996 0.000730 0.000002 1038.122007 0.002166
0.217502 0.001837 0.000682 0.000002 0.000000 0.000000
0.222961 0.001952 0.000765 0.000002 559.642217 0.001086
0.225517 0.001660 0.000560 0.000002 243.903951 0.000407
0.230785 0.001874 0.000667 0.000002 1572.729644 0.002829
0.229858 0.000772 0.000773 0.000002 274.416542 0.000581
0.231278 0.000652 0.000652 0.000002 92.535675 0.000172
0.000797 0.004951 0.000795 0.000002 906.442154 0.001932
0.002377 0.004593 0.000770 0.000002 2110.588535 0.004069
0.003737 0.004651 0.000591 0.000002 737.280333 0.001277
0.004989 0.005104 0.000740 0.000002 207.799277 0.000405
0.006436 0.004880 0.000725 0.000002 2416.410217 0.004710
0.007830 0.004396 0.000594 0.000002 0.000000 0.000000
0.009056 0.004693 0.000666 0.000002 527.442193 0.000928
0.010410 0.005053 0.000736 0.000002 84.325814 0.000178
0.011890 0.004732 0.000711 0.000002 2073.143945 0.003877
0.013932 0.005126 0.000706 0.000002 917.773237 0.001793
0.015314 0.004833 0.000707 0.000002 626.014897 0.001231
0.016618 0.004822 0.000598 0.000002 719.130566 0.001260
0.017915 0.005141 0.000703 0.000002 812.883120 0.001475
0.019274 0.004659 0.000739 0.000002 945.143137 0.001812
0.020595 0.004675 0.000583 0.000002 729.896484 0.001246
0.022071 0.004692 0.000661 0.000002 1623.452941 0.002782
0.023395 0.004315 0.000717 0.000002 48.207199 0.000091
0.024842 0.004646 0.000769 0.000002 281.926031 0.000540
0.026287 0.004479 0.000686 0.000002 382.247438 0.000666
0.027738 0.004451 0.000766 0.000002 1813.592434 0.003422
0.029202 0.004493 0.000700 0.000002 9.536897 0.000017
0.030630 0.004619 0.000734 0.000002 1976.162286 0.003469
0.032093 0.004544 0.000632 0.000002 1276.460654 0.002090
0.033735 0.004556 0.000718 0.000002 192.809507 0.000341
0.035021 0.004878 0.000608 0.000002 947.400438 0.001547
0.036301 0.004840 0.000624 0.000002 289.509543 0.000469
0.037547 0.004805 0.000622 0.000002 583.858312 0.000999
0.038915 0.004486 0.000783 0.000002 1062.261469 0.002116
0.040338 0.004453 0.000641 0.000002 247.644884 0.000423
0.041598 0.004970 0.000721 0.000002 1653.263747 0.002897
0.042994 0.004554 0.000736 0.000002 0.000000 0.000000
0.044488 0.004523 0.000691 0.000002 2256.747671 0.004040
0.046123 0.004562 0.000655 0.000002 266.078488 0.000474
0.047456 0.004658 0.000682 0.000002 929.966171 0.001455
0.048870 0.004880 0.000673 0.000002 274.648514 0.000482
0.050332 0.004730 0.000797 0.000002 1711.107713 0.003768
0.051962 0.004471 0.000785 0.000002 0.000000 0.000000
0.053643 0.005205 0.000788 0.000002 2332.805137 0.005108
0.054852 0.004431 0.000649 0.000002 37.294290 0.000065
0.056078 0.004719 0.000611 0.000002 891.369961 0.001550
0.057438 0.004781 0.000734 0.000002 898.670332 0.001633
0.058951 0.004824 0.000780 0.000002 1.043273 0.000002
0.060374 0.005070 0.000664 0.000002 1309.810724 0.002421
0.061780 0.004739 0.000781 0.000002 15.162699 0.000030
0.063255 0.004995 0.000716 0.000002 2057.901941 0.004079
0.064705 0.004919 0.000736 0.000002 826.601678 0.001717
0.065935 0.004354 0.000617 0.000002 936.551560 0.001450
0.067090 0.004290 0.000540 0.000001 417.312399 0.000579
0.068352 0.004087 0.000738 0.000002 1264.265513 0.002305
0.069750 0.004845 0.000854 0.000002 907.845020 0.002065
0.071244 0.004861 0.000639 0.000002 0.000000 0.000000
0.072602 0.004931 0.000621 0.000002 1453.340274 0.002396
0.073837 0.004487 0.000692 0.000002 6.843007 0.000013
0.075178 0.004626 0.000657 0.000002 329.434246 0.000565
0.076605 0.004621 0.000771 0.000002 1100.551167 0.002026
0.078097 0.004951 0.000758 0.000002 680.347619 0.001339
0.079594 0.004682 0.000766 0.000002 2120.860030 0.004327
0.081076 0.004552 0.000723 0.000002 893.681763 0.001776
0.082440 0.005129 0.000759 0.000002 1293.140563 0.002587
0.083934 0.005066 0.000736 0.000002 0.000000 0.000000
0.085326 0.004736 0.000636 0.000002 319.868337 0.000587
0.086704 0.004839 0.000747 0.000002 927.261858 0.001705
0.088041 0.004750 0.000593 0.000002 278.263112 0.000524
0.089735 0.004763 0.000699 0.000002 668.095415 0.001306
0.091019 0.005122 0.000636 0.000002 1470.160911 0.002748
0.092453 0.005349 0.000817 0.000002 615.324895 0.001230
0.093621 0.004517 0.000618 0.000002 106.817172 0.000174
0.094877 0.004597 0.000641 0.000002 1330.077372 0.002106
0.096318 0.004859 0.000806 0.000002 1107.934056 0.002183
0.097845 0.004794 0.000723 0.000002 1597.718122 0.002987
0.099315 0.004804 0.000677 0.000002 0.000000 0.000000
0.100766 0.004903 0.000679 0.000002 726.915867 0.001447
0.102187 0.004548 0.000787 0.000002 621.690896 0.001298
0.103785 0.004395 0.000818 0.000002 3111.362278 0.006387
0.105392 0.004410 0.000687 0.000002 96.628902 0.000179
0.106843 0.004448 0.000765 0.000002 609.967939 0.001150
0.108256 0.004865 0.000709 0.000002 39.572481 0.000069
0.109667 0.005038 0.000686 0.000002 1658.476996 0.002943
0.110748 0.004221 0.000670 0.000002 0.058017 0.000000
0.112009 0.004199 0.000591 0.000002 985.491083 0.001660
0.113766 0.004725 0.000746 0.000002 718.868172 0.001482
0.115203 0.004986 0.000715 0.000002 572.775878 0.001086
0.116639 0.004939 0.000721 0.000002 2240.711563 0.003940
0.118098 0.004748 0.000677 0.000002 461.004656 0.000821
0.119453 0.004524 0.000696 0.000002 0.402354 0.000001
0.120741 0.004603 0.000595 0.000002 288.216629 0.000502
0.122404 0.004629 0.000690 0.000002 2593.573282 0.004416
0.123673 0.004567 0.000581 0.000002 62.668906 0.000103
0.124928 0.004810 0.000697 0.000002 288.542392 0.000508
0.125906 0.005694 0.000622 0.000002 1815.872742 0.002894
0.126353 0.004533 0.000622 0.000002 0.060170 0.000000
0.127648 0.004554 0.000673 0.000002 799.649367 0.001414
0.129086 0.004614 0.000724 0.000002 1179.885132 0.002237
0.130880 0.004472 0.000790 0.000002 791.124897 0.001544
0.132412 0.004683 0.000758 0.000002 1020.552379 0.002076
0.133759 0.004275 0.000650 0.000002 246.451314 0.000450
0.135187 0.005639 0.000677 0.000002 1460.265447 0.002786
0.136496 0.004827 0.000702 0.000002 1381.140843 0.002664
0.137855 0.004692 0.000664 0.000002 294.887499 0.000553
0.139248 0.004793 0.000733 0.000002 780.967420 0.001576
0.140678 0.004661 0.000691 0.000002 412.625474 0.000774
0.141980 0.004403 0.000636 0.000002 167.769225 0.000314
0.143190 0.005153 0.000788 0.000002 1202.014248 0.002339
0.144569 0.004676 0.000672 0.000002 64.730087 0.000114
0.145914 0.004548 0.000680 0.000002 182.874644 0.000329
0.147294 0.004766 0.000719 0.000002 2621.765033 0.004894
0.148704 0.004631 0.000698 0.000002 907.589005 0.001659
0.150058 0.004522 0.000660 0.000002 571.900583 0.000967
0.151371 0.004591 0.000655 0.000002 618.928731 0.001090
0.152567 0.004460 0.000550 0.000002 1.883843 0.000003
0.153854 0.004508 0.000739 0.000002 352.201011 0.000662
0.155197 0.004782 0.000633 0.000002 1209.710961 0.002128
0.156454 0.004381 0.000689 0.000002 172.184442 0.000331
0.157894 0.004440 0.000754 0.000002 699.636495 0.001462
0.159391 0.004812 0.000789 0.000002 1228.813600 0.002827
0.161594 0.004796 0.000841 0.000002 1883.586695 0.004283
0.163004 0.004456 0.000612 0.000002 146.657150 0.000289
0.164335 0.004845 0.000777 0.000002 1021.909127 0.002021
0.165796 0.004738 0.000689 0.000002 188.534737 0.000344
0.167135 0.004556 0.000664 0.000002 8.153361 0.000013
0.168465 0.004456 0.000672 0.000002 1279.740027 0.002242
0.169799 0.004637 0.000675 0.000002 447.592464 0.000849
0.171236 0.004622 0.000763 0.000002 136.719055 0.000256
0.172639 0.004550 0.000644 0.000002 766.630750 0.001277
0.174156 0.004553 0.000684 0.000002 1.447977 0.000003
0.175485 0.004778 0.000664 0.000002 768.737122 0.001370
0.176872 0.004821 0.000724 0.000002 1516.900038 0.002922
0.178258 0.004489 0.000702 0.000002 7.919360 0.000016
0.179712 0.004723 0.000771 0.000002 1138.376414 0.002231
0.181172 0.004622 0.000692 0.000002 272.521460 0.000513
0.182533 0.004897 0.000683 0.000002 1663.112216 0.002862
0.183753 0.004299 0.000677 0.000002 0.000000 0.000000
0.186635 0.004404 0.000721 0.000002 951.893893 0.001769
0.188003 0.004376 0.000648 0.000002 4.986135 0.000009
0.189296 0.004526 0.000653 0.000002 852.844052 0.001601
0.190670 0.004731 0.000736 0.000002 282.494835 0.000573
0.192040 0.004662 0.000635 0.000002 453.574186 0.000887
0.193353 0.004173 0.000766 0.000002 1071.072249 0.002297
0.196289 0.004527 0.000651 0.000002 0.000000 0.000000
0.197330 0.003492 0.000686 0.000002 636.948664 0.001168
0.199634 0.004504 0.000763 0.000002 151.166091 0.000285
0.201039 0.004352 0.000649 0.000002 603.630920 0.001001
0.202515 0.004331 0.000641 0.000002 1345.442514 0.002414
0.204779 0.005126 0.000837 0.000002 0.000000 0.000000
0.206223 0.004394 0.000782 0.000002 1298.645165 0.002874
0.207619 0.004972 0.000730 0.000002 528.061637 0.001107
0.208559 0.003901 0.000695 0.000002 2.233492 0.000004
0.209858 0.004257 0.000651 0.000002 1351.419462 0.002290
0.210751 0.003254 0.000693 0.000002 319.651561 0.000574
0.215511 0.004310 0.000769 0.000002 196.014466 0.000407
0.216926 0.004611 0.000679 0.000002 43.233832 0.000083
0.219493 0.004261 0.000737 0.000002 108.421632 0.000215
0.223863 0.004756 0.000857 0.000002 973.031297 0.002185
0.220456 0.003180 0.000711 0.000002 0.000000 0.000000
0.221714 0.003519 0.000592 0.000002 218.929357 0.000336
0.229267 0.002155 0.000732 0.000002 112.172410 0.000245
0.232114 0.001665 0.000661 0.000002 232.355239 0.000414
0.233683 0.001890 0.000754 0.000002 197.828479 0.000393
0.232978 0.000662 0.000662 0.000002 0.112206 0.000000
0.000625 0.006361 0.000624 0.000002 0.000000 0.000000
0.001859 0.005885 0.000622 0.000002 2887.942265 0.004809
0.003188 0.005829 0.000710 0.000002 1726.639366 0.003137
0.004481 0.006506 0.000751 0.000002 1353.248252 0.002759
0.005976 0.006291 0.000761 0.000002 1434.555645 0.002897
0.007280 0.006958 0.000705 0.000002 1027.157319 0.001951
0.007586 0.005636 0.000652 0.000002 110.556659 0.000193
0.008830 0.005980 0.000640 0.000002 525.154658 0.000965
0.011436 0.006094 0.000726 0.000002 1831.554610 0.003219
0.012754 0.005763 0.000634 0.000002 454.671995 0.000769
0.013880 0.006600 0.000770 0.000002 904.553669 0.001787
0.016091 0.006038 0.000728 0.000002 1160.672895 0.002134
0.017421 0.006402 0.000651 0.000002 880.519635 0.001478
0.018685 0.006224 0.000625 0.000002 6.037089 0.000010
0.020091 0.005967 0.000804 0.000002 1581.783684 0.003040
0.021597 0.005969 0.000702 0.000002 1323.959455 0.002399
0.022971 0.005708 0.000697 0.000002 8.111576 0.000015
0.024346 0.006051 0.000721 0.000002 247.807548 0.000464
0.025666 0.005775 0.000628 0.000002 1.210023 0.000002
0.026959 0.005657 0.000671 0.000002 1871.262089 0.003385
0.028408 0.005858 0.000792 0.000002 462.160466 0.000943
0.029852 0.005767 0.000654 0.000002 1306.998662 0.002282
0.031510 0.005677 0.000642 0.000002 1021.333881 0.001630
0.032834 0.005629 0.000683 0.000002 1068.275491 0.001853
0.034203 0.005920 0.000718 0.000002 843.961317 0.001541
0.035677 0.005943 0.000643 0.000001 630.549189 0.000945
0.037017 0.005980 0.000668 0.000002 508.976424 0.000806
0.038487 0.006012 0.000803 0.000002 860.466807 0.001641
0.039934 0.005707 0.000676 0.000002 4.186975 0.000008
0.041102 0.006174 0.000581 0.000002 393.821377 0.000619
0.042565 0.005912 0.000632 0.000002 1820.054961 0.002904
0.043882 0.005768 0.000695 0.000002 1937.663773 0.003281
0.045309 0.005675 0.000724 0.000002 401.225642 0.000720
0.046712 0.005805 0.000685 0.000002 501.740999 0.000818
0.048007 0.005819 0.000603 0.000002 744.995660 0.001161
0.049256 0.006302 0.000736 0.000002 39.678011 0.000077
0.050767 0.006241 0.000777 0.000002 1512.224499 0.003442
0.052361 0.006171 0.000820 0.000002 1135.563146 0.002724
0.053833 0.006740 0.000760 0.000002 1190.172129 0.002434
0.055061 0.005836 0.000765 0.000002 111.716004 0.000225
0.056571 0.005992 0.000755 0.000002 873.522587 0.001749
0.058076 0.006127 0.000757 0.000002 692.971670 0.001378
0.059622 0.006330 0.000804 0.000002 1223.707035 0.002488
0.061104 0.006203 0.000684 0.000002 192.978438 0.000357
0.062429 0.006077 0.000647 0.000002 1379.952871 0.002527
0.063842 0.006395 0.000802 0.000002 707.544041 0.001555
0.065532 0.006222 0.000808 0.000002 1311.863503 0.002831
0.066647 0.005350 0.000609 0.000001 989.765898 0.001462
0.067860 0.005334 0.000604 0.000002 780.406890 0.001247
0.068894 0.006180 0.000733 0.000002 265.445014 0.000551
0.070666 0.006039 0.000652 0.000002 1005.220596 0.001738
0.071987 0.006066 0.000670 0.000002 883.173087 0.001407
0.073309 0.005993 0.000655 0.000002 935.810163 0.001504
0.074565 0.005751 0.000624 0.000002 36.307112 0.000059
0.075808 0.005759 0.000620 0.000002 1252.899109 0.002044
0.077103 0.006015 0.000700 0.000002 732.081780 0.001218
0.078308 0.006332 0.000546 0.000002 0.618496 0.000001
0.079600 0.006199 0.000753 0.000002 1784.708995 0.003446
0.081072 0.006007 0.000732 0.000002 448.841116 0.000920
0.083126 0.006235 0.000544 0.000002 1412.580995 0.002396
0.084335 0.006674 0.000743 0.000002 969.066943 0.001822
0.085795 0.006116 0.000822 0.000002 238.074479 0.000479
0.087351 0.006173 0.000737 0.000002 604.254361 0.001167
0.088794 0.005853 0.000743 0.000002 358.010243 0.000692
0.090220 0.006233 0.000735 0.000002 2161.733102 0.003932
0.091562 0.006493 0.000633 0.000002 0.000000 0.000000
0.092959 0.006660 0.000588 0.000002 546.573996 0.000922
0.093886 0.005790 0.000682 0.000002 1.032352 0.000002
0.095234 0.005856 0.000668 0.000002 2319.522651 0.004248
0.097208 0.006008 0.000648 0.000002 407.683083 0.000742
0.098594 0.006048 0.000739 0.000002 1375.489151 0.002507
0.100094 0.006183 0.000768 0.000002 767.838733 0.001527
0.101701 0.006102 0.000842 0.000002 613.512164 0.001331
0.103332 0.005945 0.000798 0.000002 1944.266791 0.004245
0.104690 0.005518 0.000625 0.000002 863.500153 0.001471
0.106035 0.005711 0.000735 0.000002 808.275458 0.001523
0.107391 0.005888 0.000632 0.000002 0.000000 0.000000
0.108843 0.006094 0.000654 0.000002 507.012201 0.000896
0.110494 0.006253 0.000785 0.000002 1999.004209 0.003804
0.111612 0.005367 0.000643 0.000002 84.534950 0.000147
0.112856 0.005827 0.000683 0.000002 879.004231 0.001602
0.114274 0.006157 0.000773 0.000002 113.040178 0.000224
0.115956 0.006184 0.000700 0.000002 1741.839666 0.003138
0.117385 0.006155 0.000707 0.000002 1068.229874 0.001888
0.118745 0.005931 0.000672 0.000002 367.316085 0.000664
0.120180 0.005843 0.000767 0.000002 169.076000 0.000317
0.121701 0.005890 0.000755 0.000002 1550.288231 0.002987
0.123217 0.005830 0.000762 0.000002 756.305626 0.001399
0.124659 0.006210 0.000729 0.000002 430.570776 0.000854
0.126296 0.007032 0.000772 0.000002 430.292345 0.000882
0.127192 0.005817 0.000671 0.000002 799.266910 0.001406
0.128764 0.006084 0.000781 0.000002 766.516804 0.001486
0.130013 0.005535 0.000584 0.000002 1592.960590 0.002571
0.131253 0.005806 0.000596 0.000002 0.722538 0.000001
0.132463 0.006085 0.000646 0.000002 1161.381427 0.001857
0.133776 0.005660 0.000735 0.000002 0.000000 0.000000
0.134563 0.006871 0.000705 0.000002 1210.282100 0.002102
0.136453 0.006262 0.000735 0.000002 1887.393652 0.003667
0.137958 0.006129 0.000776 0.000002 7.073932 0.000015
0.139450 0.006232 0.000721 0.000002 914.436962 0.001820
0.140892 0.006067 0.000731 0.000002 31.413191 0.000068
0.142283 0.006308 0.000682 0.000002 1020.583482 0.002090
0.144096 0.006294 0.000669 0.000002 230.488852 0.000440
0.145345 0.005784 0.000681 0.000002 157.866310 0.000271
0.146657 0.005932 0.000612 0.000002 1804.620656 0.003120
0.147974 0.006020 0.000709 0.000002 957.593204 0.001680
0.149339 0.005840 0.000669 0.000002 930.055414 0.001503
0.150661 0.005697 0.000661 0.000002 1015.197992 0.001614
0.151828 0.006272 0.000641 0.000002 583.979835 0.001048
0.153131 0.005803 0.000745 0.000002 12.809631 0.000026
0.154628 0.006070 0.000777 0.000002 1026.475382 0.002042
0.156172 0.005828 0.000786 0.000002 29.994372 0.000060
0.157677 0.005899 0.000721 0.000002 550.502723 0.001186
0.159306 0.006219 0.000621 0.000002 1179.378476 0.002180
0.160635 0.006029 0.000723 0.000002 996.851306 0.002059
0.162448 0.006128 0.000743 0.000002 596.456942 0.001253
0.163851 0.006200 0.000663 0.000002 471.426037 0.000874
0.165246 0.006056 0.000740 0.000002 985.388560 0.001797
0.166643 0.005813 0.000680 0.000002 41.238797 0.000072
0.167991 0.005714 0.000674 0.000002 1050.329890 0.001894
0.169331 0.005910 0.000682 0.000002 508.562258 0.000914
0.170736 0.006059 0.000732 0.000002 348.497331 0.000653
0.172103 0.005760 0.000669 0.000002 120.647923 0.000215
0.173342 0.005559 0.000587 0.000002 344.215969 0.000544
0.174639 0.005927 0.000764 0.000002 1352.248395 0.002557
0.176087 0.005991 0.000686 0.000002 18.140221 0.000034
0.177552 0.006175 0.000792 0.000002 1773.055015 0.003604
0.178978 0.005944 0.000654 0.000002 696.380170 0.001322
0.180301 0.006107 0.000680 0.000002 412.134649 0.000723
0.181632 0.005903 0.000669 0.000002 1281.586981 0.002150
0.183288 0.005903 0.000575 0.000002 331.663774 0.000507
0.184463 0.005665 0.000625 0.000002 134.459787 0.000230
0.185995 0.005669 0.000697 0.000002 1652.948795 0.003064
0.187380 0.005601 0.000690 0.000002 404.218075 0.000758
0.188762 0.005772 0.000703 0.000002 873.914009 0.001803
0.192047 0.006051 0.000754 0.000002 408.744740 0.000831
0.193546 0.005711 0.000784 0.000002 826.050555 0.001725
0.194905 0.004993 0.000752 0.000002 43.945365 0.000091
0.197313 0.005707 0.000810 0.000002 696.344488 0.001463
0.198203 0.004526 0.000668 0.000002 632.486635 0.001169
0.200569 0.005557 0.000645 0.000002 773.882501 0.001309
0.201832 0.005401 0.000628 0.000002 0.000000 0.000000
0.203240 0.005518 0.000751 0.000002 1305.059290 0.002632
0.206473 0.005900 0.000746 0.000002 337.195961 0.000700
0.207893 0.006526 0.000806 0.000002 912.248052 0.002111
0.209056 0.005445 0.000784 0.000002 175.360877 0.000340
0.210438 0.005737 0.000629 0.000002 12.075840 0.000020
0.211232 0.004612 0.000748 0.000002 339.947834 0.000688
0.214062 0.004761 0.000749 0.000002 279.548260 0.000616
0.218530 0.005553 0.000701 0.000002 1253.982539 0.002429
0.218163 0.004311 0.000594 0.000002 0.000000 0.000000
0.220924 0.004579 0.000730 0.000002 210.636744 0.000380
0.225793 0.002839 0.000650 0.000002 35.204892 0.000062
0.225621 0.004199 0.000703 0.000002 7.557433 0.000015
0.223019 0.003430 0.000715 0.000002 0.000000 0.000000
0.224354 0.001971 0.000628 0.000002 596.225651 0.001044
0.237490 0.003415 0.000621 0.000002 258.407131 0.000462
0.241226 0.002281 0.000812 0.000002 1160.399847 0.002564
0.236585 0.002112 0.000627 0.000002 0.818395 0.000002
0.237078 0.000764 0.000764 0.000002 0.000000 0.000000
0.000629 0.007638 0.000629 0.000002 795.346314 0.001397
0.001819 0.007160 0.000656 0.000002 2045.251121 0.003458
0.003202 0.007269 0.000732 0.000002 717.740196 0.001396
0.004475 0.007984 0.000729 0.000002 1473.138982 0.002902
0.005888 0.007753 0.000704 0.000002 950.869926 0.001996
0.007603 0.008246 0.000625 0.000002 872.116536 0.001488
0.008688 0.007378 0.000765 0.000002 625.374052 0.001305
0.010057 0.006678 0.000773 0.000002 357.222337 0.000773
0.011233 0.007422 0.000620 0.000002 2107.729092 0.003702
0.012494 0.007063 0.000692 0.000002 81.155901 0.000138
0.015190 0.007022 0.000608 0.000002 849.693750 0.001579
0.016493 0.007487 0.000776 0.000002 787.872348 0.001613
0.018099 0.007522 0.000659 0.000002 824.551888 0.001451
0.019478 0.007372 0.000729 0.000002 774.704606 0.001411
0.020945 0.007256 0.000742 0.000002 1766.508575 0.003305
0.022347 0.007115 0.000669 0.000002 35.471191 0.000067
0.023701 0.007318 0.000702 0.000002 503.127254 0.000973
0.025096 0.007252 0.000696 0.000002 405.212814 0.000705
0.026467 0.006945 0.000710 0.000002 1177.176690 0.002238
0.027926 0.007393 0.000817 0.000002 1012.739130 0.002233
0.029379 0.007018 0.000684 0.000002 898.599559 0.001703
0.030746 0.006750 0.000675 0.000002 0.000000 0.000000
0.032173 0.006778 0.000644 0.000002 1592.181158 0.002768
0.033515 0.007412 0.000841 0.000002 516.317109 0.001091
0.034991 0.007067 0.000675 0.000002 971.395798 0.001642
0.036293 0.007054 0.000628 0.000002 789.137827 0.001241
0.037599 0.007211 0.000689 0.000002 565.473953 0.001000
0.039036 0.007247 0.000549 0.000002 476.117090 0.000760
0.040242 0.007082 0.000669 0.000002 243.021771 0.000387
0.041978 0.007096 0.000691 0.000002 1541.225247 0.002501
0.043282 0.006941 0.000622 0.000002 548.194318 0.000889
0.044647 0.006978 0.000738 0.000002 2016.345550 0.003588
0.046076 0.007025 0.000692 0.000002 583.448917 0.001045
0.047459 0.006992 0.000693 0.000002 260.431573 0.000460
0.048664 0.007531 0.000628 0.000002 526.556757 0.000920
0.050047 0.007596 0.000758 0.000002 1848.596553 0.003423
0.051594 0.007584 0.000789 0.000002 1150.031624 0.002258
0.053020 0.007898 0.000655 0.000002 204.109898 0.000365
0.054306 0.008047 0.000631 0.000002 851.955738 0.001451
0.055568 0.007335 0.000818 0.000002 0.347621 0.000001
0.057198 0.007431 0.000815 0.000002 1016.978883 0.002114
0.058653 0.007400 0.000641 0.000002 924.857381 0.001749
0.060440 0.007684 0.000779 0.000002 869.823207 0.001911
0.061924 0.007367 0.000740 0.000002 1200.623176 0.002363
0.063315 0.007901 0.000752 0.000002 326.702278 0.000661
0.064816 0.007632 0.000774 0.000002 1148.461076 0.002342
0.066418 0.007463 0.000717 0.000002 1277.541349 0.002414
0.067271 0.006420 0.000631 0.000002 908.396135 0.001581
0.068119 0.007589 0.000814 0.000002 569.461843 0.001233
0.069924 0.007139 0.000676 0.000002 1362.646903 0.002631
0.071285 0.007228 0.000688 0.000002 792.133802 0.001417
0.072734 0.007288 0.000762 0.000002 469.252876 0.000872
0.074188 0.007011 0.000691 0.000002 479.207738 0.000902
0.076141 0.007051 0.000715 0.000002 1233.828635 0.002382
0.077537 0.007363 0.000717 0.000002 232.323102 0.000390
0.078927 0.007460 0.000678 0.000002 1276.346423 0.002176
0.080516 0.007335 0.000708 0.000002 878.817073 0.001604
0.081871 0.007147 0.000660 0.000002 56.244188 0.000109
0.083158 0.007438 0.000661 0.000002 2622.518597 0.004242
0.084271 0.008076 0.000622 0.000002 793.187063 0.001239
0.085425 0.007541 0.000650 0.000002 491.770715 0.000804
0.086609 0.007248 0.000570 0.000002 344.080920 0.000526
0.087786 0.007610 0.000661 0.000002 223.934839 0.000394
0.089178 0.007310 0.000764 0.000002 396.425367 0.000813
0.090711 0.007596 0.000716 0.000002 1584.349664 0.002958
0.092195 0.007797 0.000782 0.000002 312.504566 0.000611
0.093708 0.007747 0.000733 0.000002 1243.803556 0.002557
0.094959 0.007149 0.000656 0.000002 1736.309876 0.003306
0.096313 0.007020 0.000705 0.000002 30.694043 0.000061
0.097767 0.007323 0.000781 0.000002 1099.964426 0.002114
0.099210 0.007306 0.000662 0.000002 817.328008 0.001600
0.100894 0.007486 0.000761 0.000002 858.398550 0.001820
0.102431 0.007402 0.000650 0.000002 0.159664 0.000000
0.103693 0.007310 0.000616 0.000002 2877.032842 0.004677
0.104889 0.006808 0.000682 0.000002 121.632747 0.000231
0.106357 0.007273 0.000860 0.000002 886.642027 0.001933
0.107982 0.007224 0.000767 0.000002 487.663852 0.000969
0.109456 0.007329 0.000711 0.000002 826.990361 0.001573
0.110914 0.007555 0.000583 0.000002 1010.670311 0.001588
0.111861 0.006740 0.000667 0.000002 38.776535 0.000070
0.113187 0.007212 0.000741 0.000002 652.048962 0.001305
0.115158 0.007248 0.000632 0.000002 1065.932806 0.001941
0.116689 0.007430 0.000747 0.000002 1459.388416 0.002633
0.118061 0.007309 0.000631 0.000002 249.356822 0.000455
0.119440 0.007176 0.000755 0.000002 275.063788 0.000543
0.120914 0.007137 0.000721 0.000002 1014.858925 0.001962
0.122384 0.007112 0.000645 0.000002 549.352419 0.000969
0.123670 0.007160 0.000643 0.000002 1272.060089 0.002223
0.124946 0.007871 0.000818 0.000002 547.681081 0.001262
0.126523 0.008544 0.000757 0.000002 208.199308 0.000415
0.127702 0.007017 0.000634 0.000002 1252.062257 0.002060
0.128886 0.007509 0.000650 0.000002 898.837960 0.001560
0.130129 0.006864 0.000751 0.000002 1083.745249 0.002034
0.131590 0.007161 0.000741 0.000002 781.322571 0.001510
0.133287 0.006988 0.000577 0.000002 233.137283 0.000374
0.134064 0.008125 0.000646 0.000002 1023.781525 0.001782
0.135792 0.007514 0.000682 0.000002 1291.688519 0.002466
0.137250 0.007526 0.000759 0.000002 733.146817 0.001357
0.138709 0.007446 0.000702 0.000002 0.848608 0.000002
0.140221 0.007558 0.000814 0.000002 656.816281 0.001381
0.141775 0.007639 0.000743 0.000002 804.140616 0.001718
0.143195 0.007353 0.000706 0.000002 263.596675 0.000494
0.144579 0.007571 0.000697 0.000002 742.119247 0.001400
0.145937 0.007083 0.000747 0.000002 1759.250680 0.003497
0.147441 0.007426 0.000796 0.000002 495.942503 0.001037
0.148845 0.007067 0.000654 0.000002 1014.048154 0.001744
0.150129 0.006886 0.000642 0.000002 1370.448604 0.002198
0.151272 0.007390 0.000607 0.000002 342.037657 0.000526
0.152591 0.007390 0.000712 0.000002 394.214492 0.000680
0.153986 0.007382 0.000684 0.000002 903.769103 0.001659
0.155455 0.007264 0.000675 0.000002 0.000000 0.000000
0.156884 0.007195 0.000755 0.000002 0.000000 0.000000
0.158360 0.007168 0.000721 0.000002 2107.192067 0.004022
0.160131 0.007295 0.000640 0.000002 425.551003 0.000764
0.161465 0.007179 0.000697 0.000002 899.313100 0.001611
0.163166 0.007359 0.000683 0.000002 630.306404 0.001186
0.164610 0.007416 0.000762 0.000002 751.927490 0.001498
0.166219 0.007115 0.000689 0.000002 0.000000 0.000000
0.167760 0.007187 0.000818 0.000002 788.461611 0.001643
0.169186 0.007187 0.000605 0.000002 460.258743 0.000788
0.170374 0.007332 0.000591 0.000002 146.895621 0.000243
0.171773 0.007205 0.000813 0.000002 230.772910 0.000505
0.173427 0.006997 0.000854 0.000002 199.764174 0.000494
0.175237 0.007336 0.000769 0.000002 961.395253 0.002188
0.176700 0.007392 0.000695 0.000002 984.197419 0.001920
0.178100 0.007581 0.000718 0.000002 692.667822 0.001317
0.179468 0.007204 0.000699 0.000002 1177.501104 0.002066
0.181170 0.007121 0.000635 0.000002 425.096168 0.000694
0.182535 0.006977 0.000736 0.000002 1150.059472 0.001947
0.183820 0.006895 0.000551 0.000002 0.010652 0.000000
0.185157 0.006894 0.000787 0.000002 797.166338 0.001446
0.186761 0.006977 0.000819 0.000002 1317.800942 0.002624
0.189408 0.007033 0.000715 0.000002 1232.925242 0.002322
0.190575 0.006189 0.000725 0.000002 0.000000 0.000000
0.193061 0.007183 0.000767 0.000002 485.476488 0.001012
0.194658 0.006571 0.000622 0.000002 338.088007 0.000658
0.195862 0.006064 0.000684 0.000002 0.000000 0.000000
0.198329 0.007067 0.000716 0.000002 115.902960 0.000229
0.198820 0.005743 0.000697 0.000002 402.860201 0.000777
0.202605 0.006799 0.000679 0.000002 449.044018 0.000755
0.203918 0.006726 0.000636 0.000002 907.675403 0.001573
0.205222 0.006575 0.000677 0.000002 0.000000 0.000000
0.207878 0.008136 0.000804 0.000002 406.918730 0.000972
0.209551 0.006785 0.000644 0.000002 -0.720326 -0.000001
0.210786 0.006913 0.000598 0.000002 0.000000 0.000000
0.211784 0.005996 0.000742 0.000002 349.922541 0.000682
0.213125 0.005759 0.000621 0.000002 211.978295 0.000483
0.215284 0.005684 0.000624 0.000002 95.350839 0.000183
0.216539 0.005878 0.000647 0.000002 0.000000 0.000000
0.219940 0.005639 0.000711 0.000002 0.000000 0.000000
0.222853 0.005945 0.000704 0.000002 112.196787 0.000221
0.226993 0.003354 0.000656 0.000002 91.913687 0.000168
0.227453 0.002072 0.000677 0.000002 0.000000 0.000000
0.224505 0.003313 0.000722 0.000002 0.000000 0.000000
0.233287 0.003290 0.000700 0.000002 177.834291 0.000337
0.236064 0.003453 0.000806 0.000002 4.856344 0.000010
0.239560 0.002355 0.000851 0.000002 965.334434 0.002237
0.235195 0.002035 0.000765 0.000002 213.607566 0.000415
0.234318 0.000644 0.000644 0.000002 0.000000 0.000000
0.000905 0.009024 0.000785 0.000002 310.825523 0.000718
0.002337 0.008426 0.000714 0.000002 2404.321338 0.004805
0.003603 0.009211 0.000777 0.000002 321.451459 0.000658
0.005102 0.009294 0.000725 0.000002 1338.501153 0.002457
0.006514 0.009024 0.000714 0.000002 250.713003 0.000454
0.007738 0.009446 0.000583 0.000002 2448.368427 0.003677
0.008985 0.008896 0.000782 0.000002 35.705042 0.000075
0.010558 0.008679 0.000808 0.000002 684.553270 0.001569
0.012136 0.008492 0.000782 0.000002 1821.469357 0.003692
0.013541 0.008029 0.000699 0.000002 25.940692 0.000053
0.014857 0.008215 0.000631 0.000002 738.723450 0.001306
0.017379 0.008777 0.000789 0.000002 1228.702801 0.002486
0.018879 0.008686 0.000715 0.000002 756.087844 0.001367
0.020318 0.008584 0.000728 0.000002 1345.236544 0.002400
0.021781 0.008479 0.000740 0.000002 187.239164 0.000356
0.023285 0.008750 0.000789 0.000002 579.487153 0.001214
0.024725 0.008560 0.000664 0.000002 441.966226 0.000785
0.026026 0.008256 0.000674 0.000002 515.429746 0.000939
0.027339 0.008878 0.000780 0.000002 1105.721017 0.002222
0.028759 0.008619 0.000664 0.000002 589.420640 0.001148
0.030155 0.008257 0.000778 0.000002 1043.200977 0.001956
0.031471 0.007817 0.000611 0.000002 1374.813665 0.002355
0.032725 0.008707 0.000676 0.000002 61.464617 0.000119
0.034469 0.008473 0.000586 0.000002 436.608207 0.000702
0.035701 0.008211 0.000673 0.000002 1505.749140 0.002402
0.037003 0.008621 0.000694 0.000002 390.584689 0.000751
0.038422 0.008385 0.000745 0.000002 1092.074058 0.001891
0.039765 0.008263 0.000604 0.000001 4.288081 0.000006
0.041085 0.008184 0.000718 0.000002 1160.998679 0.001852
0.042418 0.008333 0.000623 0.000002 572.258241 0.000982
0.043808 0.008232 0.000772 0.000002 2441.042064 0.004476
0.045324 0.008209 0.000666 0.000002 0.184894 0.000000
0.046793 0.008343 0.000809 0.000002 410.182846 0.000789
0.048190 0.008700 0.000634 0.000002 678.354097 0.001155
0.049558 0.008910 0.000646 0.000002 1640.954242 0.002758
0.050811 0.008751 0.000616 0.000002 0.000000 0.000000
0.052188 0.008845 0.000606 0.000002 1454.408743 0.002520
0.053541 0.009272 0.000814 0.000002 468.382447 0.000944
0.055104 0.009017 0.000626 0.000002 659.357351 0.001283
0.056486 0.008843 0.000768 0.000002 932.473222 0.001889
0.057902 0.008720 0.000654 0.000002 29.270030 0.000055
0.059267 0.008609 0.000716 0.000002 1624.484580 0.003040
0.060608 0.009205 0.000752 0.000002 502.140878 0.001019
0.062044 0.008832 0.000731 0.000002 847.680200 0.001687
0.063265 0.009194 0.000542 0.000002 418.061811 0.000634
0.064470 0.009037 0.000673 0.000002 253.307544 0.000442
0.065791 0.008718 0.000686 0.000002 1624.588320 0.002910
0.067108 0.008623 0.000633 0.000002 637.166414 0.001084
0.068215 0.009282 0.000655 0.000002 329.812038 0.000634
0.069423 0.008506 0.000781 0.000002 1972.110141 0.004140
0.070898 0.008556 0.000696 0.000002 699.304801 0.001436
0.072352 0.008777 0.000775 0.000002 207.031602 0.000422
0.073714 0.008320 0.000660 0.000002 161.983592 0.000285
0.075125 0.008123 0.000764 0.000002 1880.438847 0.003727
0.076573 0.008423 0.000716 0.000002 214.364866 0.000425
0.078190 0.008571 0.000656 0.000002 287.543748 0.000520
0.079787 0.008568 0.000725 0.000002 1742.406083 0.003173
0.081242 0.008577 0.000731 0.000002 13.928500 0.000027
0.082725 0.008799 0.000769 0.000002 1959.038617 0.003799
0.084034 0.009292 0.000617 0.000002 421.362880 0.000632
0.085308 0.008868 0.000683 0.000002 401.847230 0.000665
0.086735 0.008584 0.000772 0.000002 218.191476 0.000414
0.088127 0.008821 0.000597 0.000002 146.274224 0.000268
0.089764 0.008661 0.000709 0.000002 918.010684 0.001841
0.091209 0.009002 0.000775 0.000002 1137.956620 0.002331
0.093048 0.009136 0.000806 0.000002 774.324982 0.001695
0.094405 0.009767 0.000586 0.000002 1622.922241 0.002724
0.095164 0.008597 0.000809 0.000002 605.222627 0.001282
0.096729 0.008465 0.000763 0.000002 420.597992 0.000915
0.098318 0.008726 0.000727 0.000002 579.236742 0.001234
0.099832 0.008618 0.000791 0.000002 1284.322410 0.002912
0.101797 0.008641 0.000706 0.000002 543.398028 0.001025
0.103219 0.008556 0.000719 0.000002 2265.886077 0.003762
0.104655 0.008271 0.000744 0.000002 93.842003 0.000181
0.105955 0.008704 0.000627 0.000002 836.307743 0.001451
0.107208 0.008509 0.000641 0.000002 230.106076 0.000439
0.108679 0.008671 0.000841 0.000002 1278.252595 0.002650
0.110218 0.008631 0.000699 0.000002 366.288710 0.000629
0.111510 0.008571 0.000595 0.000002 559.491074 0.000898
0.112765 0.008550 0.000661 0.000002 275.471838 0.000503
0.114236 0.008370 0.000822 0.000002 1347.732083 0.002650
0.115699 0.008400 0.000642 0.000002 1378.276108 0.002566
0.117228 0.008785 0.000712 0.000002 501.384598 0.000979
0.118744 0.008586 0.000817 0.000002 368.204103 0.000746
0.120316 0.008648 0.000756 0.000002 122.773436 0.000250
0.121740 0.008304 0.000710 0.000002 1607.729851 0.003009
0.123194 0.008472 0.000754 0.000002 829.879335 0.001637
0.125305 0.009347 0.000701 0.000002 689.134999 0.001268
0.126464 0.009986 0.000622 0.000002 592.090027 0.001065
0.127727 0.009571 0.000708 0.000002 1539.256840 0.002669
0.127864 0.008255 0.000616 0.000002 150.175477 0.000239
0.129053 0.008872 0.000724 0.000002 710.037236 0.001303
0.130614 0.008272 0.000739 0.000002 1552.642187 0.003352
0.132683 0.008154 0.000736 0.000002 348.470637 0.000671
0.133487 0.009305 0.000669 0.000002 942.554751 0.001820
0.135263 0.008848 0.000755 0.000002 1436.671398 0.002800
0.136626 0.008747 0.000612 0.000002 0.196660 0.000000
0.137895 0.008788 0.000658 0.000002 774.898202 0.001448
0.139275 0.008767 0.000722 0.000002 754.514184 0.001487
0.140726 0.009022 0.000735 0.000002 -0.106187 -0.000000
0.142234 0.009085 0.000775 0.000002 845.674359 0.001750
0.143700 0.008706 0.000739 0.000002 243.367153 0.000495
0.145657 0.008587 0.000785 0.000002 1663.463711 0.003486
0.147088 0.008849 0.000671 0.000002 389.764852 0.000788
0.148731 0.008429 0.000714 0.000002 815.739519 0.001575
0.150226 0.008311 0.000786 0.000002 1115.372337 0.002178
0.151827 0.008533 0.000663 0.000002 513.777215 0.000922
0.153321 0.008516 0.000630 0.000002 0.000000 0.000000
0.154765 0.008505 0.000683 0.000002 911.822411 0.001529
0.156202 0.008584 0.000758 0.000002 151.542480 0.000290
0.157684 0.008450 0.000731 0.000002 2028.407405 0.003721
0.159228 0.008435 0.000815 0.000002 231.894675 0.000463
0.160850 0.008556 0.000812 0.000002 704.847834 0.001441
0.162224 0.008231 0.000601 0.000002 1286.503055 0.002347
0.164078 0.008835 0.000753 0.000002 86.222291 0.000186
0.165697 0.008538 0.000801 0.000002 576.533974 0.001267
0.167226 0.008642 0.000732 0.000002 590.046203 0.001217
0.168691 0.008444 0.000747 0.000002 473.206812 0.000872
0.170168 0.008496 0.000591 0.000002 94.317331 0.000163
0.171976 0.008716 0.000712 0.000002 94.123798 0.000210
0.173486 0.008649 0.000799 0.000002 80.533709 0.000183
0.174971 0.008771 0.000691 0.000002 904.524582 0.001701
0.176394 0.008772 0.000718 0.000002 901.650047 0.001659
0.177764 0.008915 0.000658 0.000002 123.143135 0.000222
0.179137 0.008604 0.000740 0.000002 1596.521566 0.002813
0.180414 0.008127 0.000623 0.000002 426.874454 0.000698
0.181881 0.008329 0.000766 0.000002 716.307923 0.001369
0.183404 0.008189 0.000755 0.000002 623.633178 0.001191
0.184716 0.008163 0.000557 0.000002 751.746836 0.001253
0.185933 0.008203 0.000661 0.000002 122.992913 0.000213
0.187327 0.008423 0.000735 0.000002 1574.708326 0.002854
0.188131 0.007354 0.000603 0.000002 0.000000 0.000000
0.191541 0.007507 0.000788 0.000002 173.561651 0.000394
0.194007 0.008272 0.000676 0.000002 386.898981 0.000749
0.195388 0.007694 0.000717 0.000002 571.337154 0.001077
0.196828 0.007235 0.000794 0.000002 205.454210 0.000422
0.199205 0.008134 0.000652 0.000002 1874.678908 0.003389
0.199864 0.006830 0.000811 0.000002 133.637309 0.000258
0.201299 0.006615 0.000641 0.000002 0.000000 0.000000
0.204791 0.007914 0.000727 0.000002 1.148313 0.000002
0.206401 0.007442 0.000776 0.000003 0.000000 0.000000
0.209411 0.008155 0.000729 0.000002 0.263658 0.000001
0.210760 0.008136 0.000621 0.000002 197.192829 0.000297
0.212061 0.007528 0.000815 0.000002 241.080981 0.000468
0.213493 0.007029 0.000702 0.000002 189.617833 0.000375
0.217676 0.006807 0.000817 0.000002 11.974286 0.000024
0.219096 0.006730 0.000605 0.000002 453.559252 0.000731
0.221377 0.006012 0.000774 0.000002 119.050097 0.000247
0.226583 0.005298 0.000748 0.000002 148.541295 0.000331
0.227834 0.004477 0.000748 0.000002 10.075825 0.000020
0.228291 0.003146 0.000659 0.000002 0.000000 0.000000
0.231904 0.003019 0.000709 0.000002 10.690690 0.000021
0.238745 0.003617 0.000651 0.000002 386.330351 0.000784
0.242258 0.003357 0.000658 0.000002 0.000000 0.000000
0.248453 0.003488 0.000717 0.000002 0.000000 0.000000
0.242741 0.002065 0.000719 0.000002 0.000000 0.000000
0.235632 0.000669 0.000669 0.000002 0.000000 0.000000
0.240190 0.000814 0.000814 0.000003 0.386102 0.000001
0.000774 0.010579 0.000775 0.000002 782.191561 0.001706
0.002204 0.009929 0.000798 0.000002 1484.388320 0.002973
0.004337 0.010407 0.000626 0.000002 418.932795 0.000702
0.005782 0.010458 0.000624 0.000002 785.700373 0.001323
0.007080 0.010518 0.000676 0.000002 941.123692 0.001581
0.008660 0.010368 0.000723 0.000002 1362.951002 0.002432
0.010065 0.010111 0.000707 0.000002 448.106615 0.000872
0.011532 0.009924 0.000773 0.000002 402.482526 0.000829
0.013179 0.009783 0.000880 0.000002 1383.990761 0.003146
0.014626 0.009532 0.000590 0.000002 262.637631 0.000497
0.015889 0.009117 0.000741 0.000002 796.987894 0.001575
0.016821 0.010280 0.000751 0.000002 1182.633958 0.002436
0.018277 0.010002 0.000732 0.000002 1805.137556 0.003274
0.019696 0.009862 0.000695 0.000002 1107.506723 0.001762
0.020996 0.009739 0.000612 0.000002 2.968147 0.000005
0.022274 0.009798 0.000668 0.000002 846.595089 0.001502
0.024404 0.009855 0.000671 0.000002 257.885204 0.000520
0.025819 0.009670 0.000756 0.000002 53.302350 0.000116
0.027078 0.010274 0.000641 0.000002 789.335223 0.001415
0.028381 0.009935 0.000706 0.000002 1002.538979 0.001841
0.029993 0.009663 0.000638 0.000002 545.060261 0.001053
0.031377 0.009174 0.000751 0.000002 1683.314794 0.003112
0.032537 0.010118 0.000746 0.000002 484.351296 0.000941
0.033785 0.009500 0.000647 0.000002 115.345097 0.000192
0.035220 0.009372 0.000585 0.000002 1565.933481 0.002403
0.036392 0.009978 0.000734 0.000002 284.497789 0.000561
0.037873 0.009786 0.000760 0.000002 1047.980980 0.002044
0.039326 0.009532 0.000716 0.000002 420.062175 0.000744
0.040513 0.009263 0.000503 0.000001 219.330382 0.000312
0.041715 0.009475 0.000718 0.000002 1395.188822 0.002399
0.043177 0.009615 0.000750 0.000002 1638.123233 0.003158
0.044639 0.009374 0.000641 0.000002 523.141655 0.000913
0.045956 0.009589 0.000693 0.000002 260.374453 0.000451
0.047316 0.009732 0.000675 0.000002 73.998731 0.000126
0.048687 0.009952 0.000714 0.000002 1749.217345 0.003045
0.050325 0.010052 0.000730 0.000002 513.753310 0.000986
0.051844 0.010203 0.000797 0.000002 876.239305 0.001921
0.053230 0.010744 0.000691 0.000002 424.029556 0.000864
0.054718 0.010422 0.000832 0.000002 855.134491 0.001734
0.056243 0.010289 0.000699 0.000002 743.992340 0.001387
0.057578 0.010001 0.000667 0.000002 0.000000 0.000000
0.059386 0.010058 0.000739 0.000002 1438.909197 0.003166
0.061145 0.010560 0.000706 0.000002 370.370446 0.000759
0.062513 0.010194 0.000710 0.000002 1076.948159 0.001914
0.063824 0.010525 0.000643 0.000002 203.510365 0.000366
0.065133 0.010237 0.000698 0.000002 187.336763 0.000331
0.066599 0.009957 0.000794 0.000002 1533.455821 0.003130
0.067976 0.010679 0.000763 0.000002 1435.770527 0.003028
0.069466 0.010115 0.000831 0.000002 949.286665 0.002039
0.071045 0.009997 0.000753 0.000002 466.789934 0.000929
0.072299 0.010419 0.000570 0.000002 998.052907 0.001745
0.073262 0.009785 0.000583 0.000002 109.825695 0.000178
0.074487 0.009431 0.000693 0.000002 1820.467012 0.003384
0.075932 0.009792 0.000796 0.000002 314.215719 0.000642
0.077457 0.009747 0.000730 0.000002 271.730677 0.000510
0.078936 0.009772 0.000750 0.000002 807.180617 0.001532
0.080338 0.009820 0.000644 0.000002 843.948134 0.001583
0.081754 0.010012 0.000786 0.000002 699.659217 0.001318
0.083131 0.010099 0.000594 0.000002 1693.961119 0.002614
0.084941 0.010082 0.000586 0.000001 546.013894 0.000747
0.086082 0.010195 0.000561 0.000002 108.625770 0.000173
0.087397 0.009978 0.000771 0.000002 170.992257 0.000315
0.088963 0.009935 0.000796 0.000002 1051.383924 0.002010
0.090379 0.010143 0.000636 0.000002 318.429998 0.000613
0.092013 0.010291 0.000745 0.000002 1128.068953 0.002282
0.093423 0.010593 0.000698 0.000002 1229.336452 0.002193
0.094877 0.010832 0.000579 0.000002 211.055102 0.000357
0.095694 0.009923 0.000620 0.000002 721.146249 0.001246
0.097075 0.009950 0.000762 0.000002 377.274230 0.000750
0.098502 0.010115 0.000675 0.000002 538.690056 0.000984
0.099903 0.010132 0.000726 0.000002 1349.190178 0.002547
0.101254 0.009882 0.000649 0.000002 356.069225 0.000682
0.102568 0.009779 0.000669 0.000002 2009.176080 0.003379
0.103887 0.009676 0.000585 0.000002 410.848486 0.000698
0.105172 0.009779 0.000704 0.000002 687.029055 0.001272
0.106763 0.009874 0.000794 0.000002 364.816751 0.000703
0.108214 0.010116 0.000677 0.000002 269.058265 0.000495
0.109620 0.009940 0.000740 0.000002 1219.515985 0.002267
0.111022 0.009724 0.000658 0.000002 729.178917 0.001272
0.112381 0.009865 0.000709 0.000002 260.146117 0.000432
0.113701 0.009708 0.000620 0.000002 726.371874 0.001240
0.115127 0.009695 0.000775 0.000002 1812.445263 0.003489
0.116562 0.010029 0.000700 0.000002 593.912919 0.001157
0.118045 0.009891 0.000663 0.000002 178.602709 0.000353
0.119539 0.009932 0.000746 0.000002 263.042616 0.000485
0.120939 0.009863 0.000610 0.000002 0.672391 0.000001
0.122275 0.009653 0.000742 0.000002 1882.203453 0.003695
0.124018 0.009550 0.000603 0.000002 566.634389 0.001098
0.124914 0.010801 0.000805 0.000002 331.186973 0.000689
0.126358 0.011339 0.000736 0.000002 523.507973 0.001009
0.127714 0.010954 0.000675 0.000002 551.544633 0.000945
0.128946 0.010308 0.000716 0.000002 291.950031 0.000495
0.130227 0.009630 0.000674 0.000002 2125.393517 0.003956
0.131719 0.009395 0.000836 0.000002 232.408257 0.000502
0.132799 0.010494 0.000705 0.000002 799.486896 0.001581
0.134607 0.010259 0.000802 0.000002 1338.882033 0.002927
0.136177 0.010079 0.000779 0.000002 4.607760 0.000010
0.137753 0.010246 0.000807 0.000002 587.347388 0.001258
0.139335 0.010263 0.000775 0.000002 626.942766 0.001315
0.140718 0.010462 0.000623 0.000002 3.340915 0.000006
0.141959 0.010450 0.000618 0.000002 980.484651 0.001594
0.143311 0.010208 0.000756 0.000002 95.235817 0.000185
0.144712 0.009753 0.000717 0.000002 1459.513481 0.003044
0.146196 0.010024 0.000750 0.000002 554.277145 0.001166
0.148141 0.009685 0.000674 0.000002 1470.747918 0.002603
0.149516 0.009619 0.000702 0.000002 379.939752 0.000700
0.150968 0.009656 0.000751 0.000002 906.979479 0.001800
0.152544 0.009851 0.000838 0.000002 395.955617 0.000831
0.154043 0.009654 0.000674 0.000002 754.002815 0.001390
0.155354 0.009691 0.000636 0.000002 147.818624 0.000262
0.157185 0.009726 0.000642 0.000002 1798.963815 0.003168
0.158455 0.009607 0.000589 0.000002 0.000000 0.000000
0.159944 0.009812 0.000737 0.000002 825.811622 0.001540
0.161390 0.010084 0.000735 0.000002 61.128877 0.000119
0.162729 0.009470 0.000738 0.000002 1201.448888 0.002180
0.165083 0.009997 0.000782 0.000002 676.105803 0.001329
0.166631 0.010017 0.000766 0.000002 79.901412 0.000157
0.168110 0.009774 0.000705 0.000002 642.145447 0.001117
0.169533 0.009613 0.000694 0.000002 424.269728 0.000660
0.170874 0.009519 0.000651 0.000002 210.009991 0.000322
0.172801 0.010068 0.000776 0.000002 27.957075 0.000057
0.174250 0.009935 0.000679 0.000002 487.254289 0.000883
0.175657 0.009885 0.000617 0.000002 1018.915396 0.001683
0.177010 0.010110 0.000755 0.000002 550.353164 0.001034
0.178651 0.010022 0.000760 0.000002 832.801628 0.001688
0.179943 0.010619 0.000663 0.000002 1253.627101 0.002451
0.180271 0.009370 0.000629 0.000002 73.448465 0.000126
0.182842 0.009492 0.000665 0.000002 426.587659 0.000782
0.185175 0.009326 0.000694 0.000002 882.886226 0.001534
0.186541 0.009585 0.000668 0.000002 324.671080 0.000573
0.188036 0.009737 0.000759 0.000002 874.908870 0.001715
0.188824 0.008405 0.000656 0.000002 0.000000 0.000000
0.190208 0.008242 0.000736 0.000002 1368.275719 0.002837
0.192605 0.008660 0.000778 0.000002 0.000000 0.000000
0.195131 0.009122 0.000734 0.000002 1348.684920 0.002310
0.196433 0.008631 0.000658 0.000002 4.227408 0.000007
0.197850 0.008542 0.000764 0.000002 207.693535 0.000401
0.200564 0.008161 0.000693 0.000002 74.469026 0.000138
0.201941 0.008001 0.000694 0.000002 0.000000 0.000000
0.203371 0.007938 0.000694 0.000002 1165.562097 0.001925
0.207028 0.009511 0.000813 0.000002 296.616282 0.000690
0.208695 0.009584 0.000851 0.000002 0.000000 0.000000
0.211718 0.008910 0.000610 0.000002 178.467450 0.000303
0.214772 0.008348 0.000767 0.000002 2.356648 0.000005
0.214861 0.006908 0.000672 0.000002 6.703224 0.000013
0.216207 0.007216 0.000709 0.000002 0.000000 0.000000
0.221253 0.007742 0.000610 0.000002 160.149486 0.000288
0.220315 0.006931 0.000631 0.000002 0.000000 0.000000
0.222332 0.004542 0.000588 0.000002 0.000000 0.000000
0.231010 0.004571 0.000665 0.000002 242.616576 0.000455
0.229333 0.004286 0.000763 0.000002 652.008041 0.001326
0.230456 0.003260 0.000758 0.000002 0.000000 0.000000
0.234626 0.003319 0.000639 0.000002 1030.072828 0.001972
0.239029 0.004987 0.000749 0.000002 327.191773 0.000703
0.245107 0.002792 0.000759 0.000002 582.429689 0.001204
0.247172 0.003135 0.000612 0.000002 328.420011 0.000540
0.247745 0.001991 0.000634 0.000002 2.844629 0.000005
0.238616 0.000758 0.000758 0.000002 414.605418 0.000964
0.000680 0.012030 0.000679 0.000002 0.000000 0.000000
0.001999 0.011430 0.000718 0.000002 1569.710966 0.002868
0.003218 0.010865 0.000583 0.000002 865.090397 0.001485
0.005021 0.011575 0.000728 0.000002 1078.004491 0.001959
0.006399 0.011658 0.000652 0.000002 206.161829 0.000347
0.007938 0.011600 0.000706 0.000002 1382.661919 0.002605
0.009484 0.011491 0.000670 0.000002 632.230588 0.001172
0.010895 0.011310 0.000752 0.000002 731.774588 0.001421
0.012367 0.011131 0.000694 0.000002 615.128016 0.001261
0.013952 0.011196 0.000732 0.000002 846.376414 0.001732
0.015305 0.010657 0.000724 0.000002 90.366838 0.000182
0.016351 0.011734 0.000777 0.000002 1230.439827 0.002474
0.017891 0.011468 0.000785 0.000002 1054.460489 0.002119
0.019122 0.010961 0.000547 0.000002 1761.319467 0.002675
0.020514 0.010892 0.000620 0.000002 0.090062 0.000000
0.021753 0.010978 0.000622 0.000002 282.568093 0.000452
0.023309 0.010847 0.000807 0.000002 741.472039 0.001482
0.024830 0.011379 0.000805 0.000002 84.680664 0.000192
0.026455 0.011615 0.000837 0.000002 470.584865 0.001062
0.027959 0.011242 0.000668 0.000002 473.007611 0.000896
0.029462 0.011050 0.000847 0.000002 1774.715539 0.003669
0.030995 0.010620 0.000746 0.000002 687.345423 0.001341
0.032087 0.011632 0.000745 0.000002 1424.138789 0.002904
0.033506 0.011231 0.000731 0.000002 1641.414379 0.003076
0.034650 0.010464 0.000648 0.000002 399.459164 0.000697
0.035749 0.011293 0.000730 0.000002 709.862937 0.001361
0.037326 0.011298 0.000848 0.000002 294.620361 0.000638
0.038856 0.010878 0.000710 0.000002 726.346451 0.001412
0.040643 0.010585 0.000826 0.000002 290.627133 0.000627
0.042293 0.010810 0.000737 0.000002 1986.184675 0.003898
0.043749 0.010979 0.000729 0.000002 473.064427 0.000875
0.045065 0.010587 0.000645 0.000002 600.528988 0.000971
0.046402 0.010952 0.000741 0.000002 142.378501 0.000250
0.047785 0.010963 0.000642 0.000002 1193.266446 0.002099
0.049390 0.011218 0.000735 0.000002 572.065763 0.001087
0.050885 0.011452 0.000779 0.000002 1439.396458 0.002885
0.052408 0.012036 0.000841 0.000002 244.584553 0.000544
0.054109 0.011863 0.000732 0.000002 365.876244 0.000729
0.055653 0.011562 0.000642 0.000002 695.847145 0.001230
0.056979 0.011464 0.000688 0.000002 964.038618 0.001626
0.058420 0.011221 0.000774 0.000002 437.439188 0.000824
0.059962 0.011472 0.000788 0.000002 1544.978153 0.002988
0.061325 0.011908 0.000643 0.000002 146.180991 0.000272
0.062690 0.011640 0.000748 0.000002 633.603677 0.001299
0.064668 0.011514 0.000658 0.000002 215.823292 0.000397
0.066007 0.011321 0.000694 0.000002 1266.983344 0.002437
0.067264 0.011989 0.000730 0.000002 813.627798 0.001766
0.069117 0.011689 0.000762 0.000002 1279.343897 0.002748
0.070410 0.011211 0.000617 0.000002 1006.734777 0.001746
0.071667 0.011488 0.000672 0.000002 995.846608 0.001723
0.073004 0.011899 0.000728 0.000002 2686.002814 0.005398
0.074125 0.010872 0.000793 0.000002 84.276237 0.000175
0.075547 0.011206 0.000669 0.000002 411.547884 0.000758
0.076773 0.010901 0.000596 0.000002 23.790657 0.000042
0.078154 0.011110 0.000801 0.000002 1178.374277 0.002383
0.079738 0.011114 0.000783 0.000002 692.050308 0.001322
0.081184 0.011368 0.000686 0.000002 418.208473 0.000772
0.082560 0.011254 0.000696 0.000002 1145.529967 0.002086
0.084049 0.010988 0.000685 0.000002 1281.284002 0.002182
0.085341 0.011231 0.000630 0.000002 135.022031 0.000204
0.086718 0.011250 0.000671 0.000002 253.312045 0.000424
0.088211 0.011238 0.000709 0.000002 424.969629 0.000792
0.089650 0.011298 0.000731 0.000002 795.188547 0.001458
0.091122 0.011496 0.000755 0.000002 1092.443643 0.002053
0.092565 0.011698 0.000702 0.000002 141.225155 0.000251
0.094062 0.011967 0.000819 0.000002 917.423028 0.001802
0.096203 0.011265 0.000816 0.000002 803.677316 0.001589
0.097733 0.011271 0.000715 0.000002 826.818588 0.001543
0.099138 0.011325 0.000692 0.000002 910.077280 0.001604
0.100534 0.011417 0.000707 0.000002 780.873135 0.001442
0.101991 0.011110 0.000783 0.000002 1910.520726 0.003690
0.103526 0.010955 0.000744 0.000002 349.838599 0.000643
0.104914 0.011111 0.000653 0.000002 588.975461 0.001032
0.106224 0.011225 0.000661 0.000002 383.135849 0.000642
0.107503 0.011198 0.000619 0.000002 266.583206 0.000415
0.109001 0.011188 0.000653 0.000002 0.000000 0.000000
0.110608 0.011135 0.000813 0.000002 1738.236849 0.003621
0.112061 0.011177 0.000642 0.000002 599.143351 0.001057
0.113263 0.010852 0.000605 0.000002 388.965251 0.000603
0.114529 0.011011 0.000672 0.000002 2177.664636 0.003958
0.115830 0.011145 0.000636 0.000002 45.429112 0.000087
0.117470 0.011329 0.000886 0.000002 707.899174 0.001586
0.119048 0.011285 0.000693 0.000002 146.683633 0.000267
0.120298 0.011024 0.000584 0.000002 95.483768 0.000159
0.121678 0.011071 0.000797 0.000002 1352.759431 0.002617
0.123330 0.010745 0.000777 0.000002 1319.916043 0.002549
0.124051 0.012031 0.000698 0.000002 1245.808657 0.002092
0.125383 0.012357 0.000674 0.000002 499.089722 0.000936
0.127457 0.012397 0.000790 0.000002 431.444171 0.000874
0.128791 0.011590 0.000576 0.000002 30.157696 0.000048
0.130171 0.010985 0.000684 0.000002 2676.807226 0.004305
0.131498 0.010864 0.000649 0.000002 206.839227 0.000356
0.132289 0.011924 0.000674 0.000002 281.595405 0.000513
0.133787 0.011685 0.000844 0.000002 1981.268799 0.004262
0.135352 0.011591 0.000724 0.000002 34.854961 0.000071
0.136833 0.011513 0.000760 0.000002 284.117842 0.000562
0.138476 0.011505 0.000646 0.000002 206.804912 0.000385
0.139880 0.011711 0.000773 0.000002 623.702586 0.001198
0.141356 0.011627 0.000706 0.000002 889.282035 0.001496
0.142703 0.011472 0.000647 0.000002 0.000000 0.000000
0.144489 0.011310 0.000857 0.000003 1134.612597 0.002859
0.146093 0.011533 0.000762 0.000002 1001.960726 0.002252
0.147399 0.010854 0.000711 0.000002 431.840465 0.000804
0.148860 0.010915 0.000751 0.000002 969.980899 0.001710
0.150316 0.010958 0.000707 0.000002 759.815006 0.001393
0.151715 0.011153 0.000706 0.000002 80.413662 0.000151
0.153190 0.011337 0.000782 0.000002 574.550940 0.001235
0.154703 0.010951 0.000782 0.000002 774.093218 0.001505
0.156262 0.010812 0.000785 0.000002 1095.654999 0.002098
0.157852 0.010845 0.000661 0.000002 618.544971 0.000994
0.159149 0.010935 0.000640 0.000002 823.023758 0.001269
0.160462 0.011045 0.000601 0.000002 170.194853 0.000273
0.162599 0.010797 0.000596 0.000002 810.806971 0.001287
0.163751 0.010312 0.000586 0.000002 525.467478 0.000893
0.165887 0.011188 0.000622 0.000002 0.000000 0.000000
0.167612 0.011019 0.000637 0.000002 235.859202 0.000404
0.168958 0.010822 0.000645 0.000002 888.140703 0.001376
0.170301 0.010537 0.000508 0.000001 0.000000 0.000000
0.171529 0.010579 0.000595 0.000002 269.231533 0.000425
0.172446 0.011620 0.000792 0.000002 181.114709 0.000352
0.173927 0.011300 0.000724 0.000002 341.652926 0.000631
0.175284 0.011094 0.000649 0.000002 745.967572 0.001276
0.176542 0.011527 0.000682 0.000002 298.106374 0.000524
0.177890 0.011259 0.000693 0.000002 1151.389170 0.002170
0.180170 0.011945 0.000683 0.000002 1103.843930 0.002058
0.181260 0.011080 0.000709 0.000002 1584.912895 0.002916
0.181524 0.009724 0.000674 0.000002 0.000000 0.000000
0.184041 0.010097 0.000678 0.000002 284.831124 0.000556
0.185651 0.010686 0.000748 0.000002 774.631336 0.001491
0.187084 0.010834 0.000694 0.000002 211.021693 0.000398
0.189588 0.009641 0.000796 0.000002 744.863025 0.001641
0.191203 0.009451 0.000831 0.000002 238.329820 0.000551
0.193750 0.009682 0.000757 0.000002 128.401760 0.000237
0.196048 0.010024 0.000553 0.000001 182.707214 0.000273
0.197149 0.009705 0.000595 0.000002 11.570794 0.000018
0.198479 0.009945 0.000757 0.000002 298.003750 0.000571
0.199817 0.009348 0.000709 0.000002 663.281756 0.001265
0.202709 0.009159 0.000695 0.000002 19.758745 0.000035
0.204057 0.009097 0.000653 0.000002 -0.711645 -0.000001
0.205458 0.009331 0.000768 0.000002 312.419058 0.000681
0.208788 0.011117 0.000658 0.000002 3.029238 0.000005
0.210021 0.010461 0.000739 0.000002 219.538256 0.000413
0.210208 0.009177 0.000559 0.000002 0.000000 0.000000
0.213310 0.008416 0.000696 0.000002 134.407341 0.000279
0.217324 0.008305 0.000721 0.000002 8.902888 0.000017
0.218687 0.007955 0.000686 0.000002 319.171966 0.000561
0.220042 0.008230 0.000696 0.000002 32.542834 0.000063
0.224084 0.006597 0.000688 0.000002 3.421631 0.000007
0.228769 0.005608 0.000675 0.000002 216.152502 0.000407
0.233124 0.005832 0.000724 0.000002 2711.274301 0.005084
0.234009 0.004607 0.000788 0.000002 0.000000 0.000000
0.237567 0.004768 0.000725 0.000002 0.000000 0.000000
0.244625 0.004226 0.000754 0.000002 495.924165 0.001001
0.237967 0.002125 0.000755 0.000002 0.000000 0.000000
0.251783 0.002116 0.000598 0.000002 62.749476 0.000110
0.244079 0.001855 0.000632 0.000002 2900.322723 0.005098
0.241795 0.000787 0.000787 0.000002 -2.084129 -0.000005
0.247909 0.000649 0.000645 0.000002 0.000000 0.000000
0.000569 0.013276 0.000569 0.000002 436.728918 0.000681
0.003206 0.012122 0.000675 0.000002 1102.064093 0.001939
0.004357 0.012789 0.000656 0.000002 1544.941081 0.002608
0.005700 0.012818 0.000687 0.000002 0.536061 0.000001
0.007164 0.012866 0.000779 0.000002 688.858774 0.001302
0.008760 0.012829 0.000773 0.000002 743.665056 0.001430
0.010266 0.012666 0.000743 0.000002 817.514010 0.001555
0.011860 0.012591 0.000852 0.000002 1035.428016 0.002125
0.013320 0.012392 0.000621 0.000002 164.405550 0.000321
0.014919 0.012372 0.000792 0.000002 991.378193 0.002078
0.016178 0.013231 0.000732 0.000002 1422.336438 0.002629
0.017398 0.012744 0.000583 0.000002 610.820737 0.001045
0.018732 0.013066 0.000790 0.000002 1185.008932 0.002283
0.019691 0.012003 0.000642 0.000002 1075.827826 0.001795
0.021050 0.012125 0.000723 0.000002 386.485870 0.000652
0.022464 0.012084 0.000692 0.000002 773.087167 0.001381
0.023720 0.012186 0.000568 0.000002 63.266331 0.000106
0.024880 0.012903 0.000720 0.000002 0.000000 0.000000
0.026202 0.013039 0.000609 0.000002 121.250020 0.000215
0.027677 0.012640 0.000758 0.000002 1004.697968 0.001983
0.029151 0.012582 0.000718 0.000002 1152.903769 0.002335
0.030662 0.012030 0.000703 0.000002 0.000000 0.000000
0.031884 0.013254 0.000891 0.000002 1328.931016 0.003016
0.033290 0.012604 0.000659 0.000002 660.600193 0.001294
0.034603 0.012181 0.000721 0.000002 492.223699 0.001000
0.036281 0.012600 0.000682 0.000002 260.132686 0.000496
0.037551 0.013002 0.000650 0.000002 467.453631 0.000889
0.038513 0.012168 0.000624 0.000002 816.356482 0.001401
0.039848 0.011926 0.000733 0.000002 552.317428 0.001109
0.041392 0.012076 0.000819 0.000002 1729.278274 0.003689
0.042888 0.012091 0.000676 0.000002 212.254703 0.000424
0.044789 0.011791 0.000591 0.000002 1144.667441 0.001993
0.045897 0.012176 0.000583 0.000002 417.379711 0.000666
0.047207 0.012204 0.000727 0.000002 1110.884853 0.001921
0.048568 0.012318 0.000639 0.000002 401.216811 0.000690
0.049899 0.012581 0.000719 0.000002 388.079931 0.000649
0.051191 0.012784 0.000588 0.000002 1266.324485 0.002074
0.052232 0.013607 0.000741 0.000002 683.139876 0.001276
0.053613 0.013203 0.000698 0.000002 282.669897 0.000544
0.055182 0.012838 0.000718 0.000002 762.489302 0.001422
0.056527 0.012706 0.000634 0.000002 609.729307 0.001027
0.057812 0.012488 0.000632 0.000002 954.376633 0.001545
0.059022 0.012464 0.000579 0.000002 163.556783 0.000264
0.060385 0.012997 0.000796 0.000002 1015.393137 0.001946
0.062348 0.012994 0.000648 0.000002 142.535151 0.000274
0.063825 0.012760 0.000847 0.000002 525.694534 0.001143
0.065488 0.012740 0.000817 0.000002 1296.124281 0.002911
0.066910 0.013411 0.000736 0.000002 788.684110 0.001583
0.068379 0.013041 0.000780 0.000002 954.435136 0.002044
0.070375 0.012646 0.000818 0.000002 730.184123 0.001558
0.071896 0.012858 0.000718 0.000002 681.309566 0.001200
0.073211 0.013271 0.000661 0.000002 1165.027923 0.002101
0.074651 0.012407 0.000830 0.000002 0.000000 0.000000
0.076351 0.012293 0.000684 0.000002 329.137054 0.000652
0.077712 0.012544 0.000700 0.000002 1268.891688 0.002491
0.079080 0.012415 0.000674 0.000002 313.868951 0.000572
0.080356 0.012355 0.000604 0.000002 948.970827 0.001520
0.081693 0.012757 0.000793 0.000002 36.525815 0.000074
0.083153 0.012504 0.000689 0.000002 1394.231728 0.002535
0.084525 0.012288 0.000701 0.000002 791.711333 0.001371
0.085972 0.012468 0.000758 0.000002 512.347344 0.000911
0.087439 0.012430 0.000712 0.000002 404.231431 0.000732
0.088867 0.012519 0.000721 0.000002 845.269280 0.001503
0.090259 0.012638 0.000678 0.000002 1203.729039 0.002094
0.091717 0.012783 0.000663 0.000002 0.199088 0.000000
0.093002 0.012961 0.000634 0.000002 386.992572 0.000641
0.094213 0.013428 0.000649 0.000002 622.008786 0.001049
0.095502 0.012736 0.000814 0.000002 838.567999 0.001741
0.096950 0.012504 0.000632 0.000002 0.211699 0.000000
0.098408 0.012665 0.000835 0.000002 1670.945148 0.003548
0.099867 0.012572 0.000628 0.000002 619.219669 0.001216
0.101458 0.012565 0.000768 0.000002 1218.736895 0.002541
0.102920 0.012277 0.000710 0.000002 1290.483169 0.002557
0.104287 0.012261 0.000658 0.000002 614.607001 0.001122
0.105655 0.012494 0.000730 0.000002 393.504730 0.000742
0.106925 0.012233 0.000567 0.000001 122.678765 0.000174
0.108222 0.012304 0.000700 0.000002 83.227611 0.000140
0.109725 0.012502 0.000816 0.000002 1238.780935 0.002717
0.111474 0.012470 0.000779 0.000002 377.063150 0.000802
0.113034 0.012232 0.000794 0.000002 712.028258 0.001527
0.114594 0.012463 0.000783 0.000002 1750.218126 0.003778
0.116144 0.012509 0.000764 0.000002 1.558557 0.000003
0.117550 0.012911 0.000699 0.000002 711.524835 0.001292
0.118747 0.012507 0.000565 0.000002 97.460072 0.000169
0.120076 0.012361 0.000772 0.000002 48.728446 0.000095
0.121567 0.012602 0.000739 0.000002 1299.159981 0.002489
0.122734 0.011972 0.000587 0.000002 201.603907 0.000321
0.123240 0.013060 0.000613 0.000001 705.615697 0.001035
0.124469 0.013302 0.000641 0.000002 808.434697 0.001297
0.126316 0.013422 0.000742 0.000002 288.939278 0.000577
0.128847 0.013053 0.000745 0.000002 1584.939916 0.002857
0.129767 0.012147 0.000548 0.000001 1240.783701 0.001655
0.130968 0.012059 0.000654 0.000002 526.335195 0.000803
0.131736 0.013258 0.000770 0.000002 728.067806 0.001372
0.133240 0.013167 0.000737 0.000002 1102.506021 0.002183
0.134721 0.012974 0.000748 0.000002 726.514867 0.001427
0.136121 0.012752 0.000670 0.000002 153.827327 0.000277
0.137752 0.012553 0.000628 0.000002 274.577591 0.000484
0.139047 0.012962 0.000730 0.000002 327.726210 0.000665
0.140754 0.012903 0.000705 0.000002 714.992921 0.001409
0.142206 0.012810 0.000751 0.000002 317.612594 0.000641
0.143783 0.012839 0.000828 0.000002 1030.056618 0.002441
0.145534 0.012983 0.000793 0.000002 657.163464 0.001517
0.147057 0.012861 0.000735 0.000002 783.577341 0.001621
0.148048 0.011981 0.000590 0.000002 675.451605 0.001167
0.149595 0.012134 0.000673 0.000002 1035.155908 0.001797
0.150932 0.012288 0.000673 0.000002 0.940561 0.000002
0.152239 0.012389 0.000637 0.000002 515.102198 0.000928
0.154273 0.012425 0.000754 0.000002 808.995901 0.001611
0.155601 0.012055 0.000624 0.000002 156.925052 0.000296
0.157143 0.012028 0.000718 0.000002 1473.991619 0.002767
0.158448 0.011944 0.000589 0.000002 224.146575 0.000357
0.159752 0.012074 0.000649 0.000002 724.738559 0.001152
0.161627 0.011718 0.000744 0.000002 339.534557 0.000634
0.163143 0.011945 0.000675 0.000002 685.005117 0.001224
0.164507 0.011446 0.000778 0.000002 916.182439 0.001696
0.167056 0.012259 0.000722 0.000002 79.292051 0.000155
0.168442 0.012043 0.000681 0.000002 536.073193 0.000911
0.169742 0.011834 0.000636 0.000002 605.738452 0.000953
0.171014 0.011704 0.000643 0.000002 165.409091 0.000269
0.172154 0.013131 0.000747 0.000002 258.986993 0.000533
0.173513 0.012654 0.000693 0.000002 112.464584 0.000217
0.174857 0.012357 0.000685 0.000002 842.931440 0.001546
0.176178 0.012786 0.000628 0.000002 222.253690 0.000376
0.177458 0.012535 0.000654 0.000002 497.495635 0.000768
0.178827 0.012296 0.000706 0.000002 1060.378572 0.002002
0.181052 0.013018 0.000707 0.000002 1728.425090 0.003234
0.182068 0.012148 0.000632 0.000002 521.511455 0.000895
0.182840 0.010950 0.000794 0.000002 0.000000 0.000000
0.184419 0.011398 0.000677 0.000002 414.033585 0.000797
0.186282 0.012066 0.000770 0.000002 404.747196 0.000897
0.188855 0.010957 0.000711 0.000002 1274.247107 0.002711
0.190852 0.011062 0.000818 0.000003 0.000000 0.000000
0.192455 0.010269 0.000665 0.000002 613.937534 0.001263
0.194920 0.010519 0.000679 0.000002 1009.766454 0.001616
0.197489 0.010991 0.000684 0.000002 96.941337 0.000180
0.199110 0.011165 0.000617 0.000002 203.491294 0.000381
0.200401 0.010693 0.000758 0.000002 389.055266 0.000731
0.201283 0.009447 0.000760 0.000002 57.271104 0.000110
0.204848 0.010645 0.000681 0.000002 273.991396 0.000470
0.206129 0.010602 0.000601 0.000002 0.000000 0.000000
0.207406 0.010952 0.000677 0.000002 34.740179 0.000063
0.210439 0.011854 0.000715 0.000002 277.040037 0.000500
0.212763 0.009676 0.000677 0.000002 242.256276 0.000415
0.216648 0.009508 0.000659 0.000002 0.000000 0.000000
0.216073 0.008457 0.000539 0.000002 0.000000 0.000000
0.223070 0.009039 0.000709 0.000002 322.191371 0.000691
0.223788 0.007895 0.000643 0.000002 11.501087 0.000021
0.222532 0.007342 0.000729 0.000002 0.000000 0.000000
0.225156 0.005672 0.000728 0.000002 47.489842 0.000098
0.230074 0.005475 0.000637 0.000002 0.000000 0.000000
0.232435 0.004480 0.000764 0.000002 0.000000 0.000000
0.240496 0.003613 0.000707 0.000002 344.973660 0.000809
0.243237 0.004366 0.000642 0.000002 667.354849 0.001178
0.251313 0.003776 0.000727 0.000002 2779.448648 0.005363
0.250588 0.002570 0.000681 0.000002 123.256665 0.000231
0.246390 0.002053 0.000722 0.000002 622.333266 0.001234
0.245092 0.000806 0.000801 0.000002 0.000000 0.000000
0.264639 0.000775 0.000772 0.000002 0.000000 0.000000
0.278399 0.000656 0.000656 0.000002 1408.878877 0.003347
0.000646 0.014488 0.000646 0.000002 202.212557 0.000391
0.001895 0.012942 0.000800 0.000002 380.367004 0.000753
0.003239 0.013425 0.000630 0.000002 1596.569190 0.002733
0.004903 0.014095 0.000760 0.000002 1138.793348 0.002119
0.006384 0.014148 0.000722 0.000002 165.207973 0.000338
0.007994 0.013998 0.000625 0.000002 629.705039 0.001136
0.009652 0.013974 0.000681 0.000002 628.229842 0.001145
0.011019 0.013884 0.000690 0.000002 1224.439317 0.002183
0.012354 0.013976 0.000619 0.000002 808.040939 0.001385
0.013657 0.013687 0.000717 0.000002 1.588930 0.000003
0.014963 0.013755 0.000592 0.000002 1641.262924 0.002852
0.016143 0.014758 0.000797 0.000002 1159.227508 0.002385
0.017554 0.014085 0.000767 0.000002 508.514882 0.001003
0.018937 0.014441 0.000601 0.000002 447.490702 0.000757
0.020177 0.013212 0.000662 0.000002 1021.206328 0.001786
0.021561 0.013512 0.000755 0.000002 431.303766 0.000911
0.023129 0.013435 0.000815 0.000002 469.529804 0.000997
0.024340 0.014421 0.000748 0.000002 618.475802 0.001230
0.025706 0.014184 0.000640 0.000002 16.886389 0.000031
0.027128 0.014082 0.000786 0.000002 941.364908 0.001743
0.028565 0.013841 0.000672 0.000002 744.197291 0.001302
0.030288 0.013457 0.000718 0.000002 636.461904 0.001211
0.031084 0.014593 0.000670 0.000002 1491.438133 0.002518
0.032442 0.014738 0.000696 0.000002 846.491544 0.001542
0.033694 0.013975 0.000771 0.000002 471.048880 0.001034
0.035183 0.013559 0.000775 0.000002 550.452600 0.001170
0.036599 0.013954 0.000696 0.000002 316.133650 0.000613
0.038891 0.013531 0.000792 0.000002 725.297609 0.001494
0.040411 0.013294 0.000747 0.000002 1548.194014 0.003301
0.041964 0.013549 0.000763 0.000002 813.224698 0.001616
0.043351 0.013325 0.000642 0.000002 178.999414 0.000337
0.044779 0.013174 0.000794 0.000002 837.117148 0.001658
0.046373 0.013418 0.000746 0.000002 1229.278900 0.002321
0.047969 0.013474 0.000664 0.000002 330.951453 0.000556
0.049214 0.013714 0.000605 0.000002 23.504491 0.000039
0.050497 0.013851 0.000686 0.000002 1189.073937 0.002058
0.051476 0.014840 0.000705 0.000002 133.936166 0.000267
0.053278 0.014483 0.000624 0.000002 1476.964105 0.002741
0.054672 0.014256 0.000789 0.000002 531.950283 0.001013
0.056183 0.014033 0.000738 0.000002 380.208942 0.000714
0.057673 0.013874 0.000761 0.000002 706.705462 0.001351
0.059101 0.013716 0.000677 0.000002 438.257857 0.000765
0.060247 0.014384 0.000598 0.000002 268.848442 0.000469
0.061474 0.014003 0.000687 0.000002 886.688924 0.001625
0.062905 0.014380 0.000794 0.000002 263.672646 0.000544
0.064297 0.014146 0.000618 0.000002 342.082469 0.000693
0.065694 0.014335 0.000793 0.000002 1778.083476 0.003475
0.067026 0.014741 0.000600 0.000002 506.485171 0.000800
0.068313 0.014524 0.000705 0.000002 1476.959262 0.002683
0.069592 0.013945 0.000700 0.000002 3.634397 0.000007
0.071010 0.014050 0.000723 0.000002 296.734758 0.000516
0.072291 0.014071 0.000559 0.000001 1593.892649 0.002319
0.074354 0.014076 0.000739 0.000002 740.731384 0.001414
0.075811 0.013652 0.000778 0.000002 83.881466 0.000170
0.077303 0.013922 0.000739 0.000002 1176.033373 0.002351
0.078781 0.013802 0.000745 0.000002 288.305216 0.000547
0.080201 0.013635 0.000686 0.000002 519.657668 0.000946
0.081395 0.014371 0.000718 0.000002 902.720624 0.001822
0.082741 0.013854 0.000724 0.000002 1242.077814 0.002165
0.084042 0.013517 0.000620 0.000002 535.773676 0.000855
0.085304 0.013717 0.000658 0.000002 519.035418 0.000962
0.086642 0.013730 0.000670 0.000002 -0.007233 -0.000000
0.088064 0.013753 0.000751 0.000002 381.785624 0.000695
0.089504 0.013775 0.000689 0.000002 1409.162325 0.002534
0.090887 0.013861 0.000698 0.000002 419.278216 0.000776
0.092262 0.014064 0.000694 0.000002 339.564064 0.000613
0.093550 0.014608 0.000705 0.000002 714.713016 0.001374
0.095243 0.014113 0.000588 0.000002 0.000000 0.000000
0.096594 0.013874 0.000765 0.000002 730.768505 0.001488
0.098079 0.014227 0.000762 0.000002 1986.544115 0.004396
0.099629 0.013986 0.000807 0.000002 236.847134 0.000509
0.101161 0.014028 0.000726 0.000002 1188.192267 0.002464
0.102670 0.013769 0.000805 0.000002 878.454795 0.001879
0.104284 0.013729 0.000810 0.000002 412.331711 0.000971
0.106205 0.013808 0.000695 0.000002 490.413949 0.001017
0.107390 0.013298 0.000595 0.000002 33.110663 0.000053
0.108711 0.013769 0.000807 0.000002 1024.193896 0.002270
0.110621 0.013744 0.000715 0.000002 187.053482 0.000406
0.112087 0.013877 0.000756 0.000002 413.079809 0.000855
0.113624 0.013702 0.000791 0.000002 906.672203 0.002021
0.115189 0.013917 0.000790 0.000002 1377.218889 0.002925
0.116613 0.013861 0.000635 0.000002 40.569923 0.000074
0.117878 0.014263 0.000692 0.000002 682.916240 0.001240
0.119325 0.013781 0.000834 0.000002 0.808227 0.000002
0.120863 0.013862 0.000706 0.000002 882.373593 0.001678
0.122232 0.013825 0.000654 0.000002 858.068007 0.001452
0.123613 0.014263 0.000647 0.000002 550.226117 0.000903
0.125249 0.014394 0.000701 0.000002 380.518787 0.000749
0.126658 0.014935 0.000809 0.000002 2055.574576 0.004169
0.127670 0.013849 0.000678 0.000002 307.300821 0.000594
0.129487 0.014325 0.000679 0.000002 643.716638 0.001163
0.130295 0.013244 0.000671 0.000002 857.864628 0.001403
0.130901 0.014528 0.000750 0.000002 1419.426075 0.002861
0.132598 0.014481 0.000726 0.000002 465.304248 0.000915
0.134133 0.014334 0.000734 0.000002 1009.095541 0.001946
0.135697 0.014157 0.000786 0.000002 632.547899 0.001272
0.137098 0.013696 0.000689 0.000002 127.912721 0.000259
0.138418 0.014331 0.000777 0.000002 540.483920 0.001125
0.139995 0.014207 0.000805 0.000002 648.348420 0.001358
0.141568 0.014188 0.000768 0.000002 247.917465 0.000523
0.143106 0.014289 0.000773 0.000002 294.015358 0.000659
0.144587 0.014154 0.000714 0.000002 1758.192947 0.003481
0.146544 0.014180 0.000681 0.000002 278.308916 0.000534
0.148637 0.013183 0.000749 0.000002 1286.863528 0.002391
0.150086 0.013441 0.000724 0.000002 471.184061 0.000839
0.151591 0.013671 0.000800 0.000002 473.023218 0.000962
0.153160 0.013482 0.000781 0.000002 317.632294 0.000675
0.154863 0.013665 0.000620 0.000002 448.095280 0.000879
0.156304 0.013316 0.000819 0.000002 693.710602 0.001467
0.158028 0.013306 0.000836 0.000002 969.756693 0.002022
0.159497 0.013332 0.000635 0.000002 536.682999 0.000927
0.160819 0.012960 0.000738 0.000002 443.382541 0.000836
0.162282 0.013054 0.000729 0.000002 501.679060 0.000972
0.164140 0.012843 0.000667 0.000002 337.332822 0.000624
0.165579 0.012595 0.000794 0.000002 736.535433 0.001415
0.168006 0.013510 0.000849 0.000002 465.716044 0.000965
0.169489 0.013128 0.000683 0.000002 429.490255 0.000753
0.170790 0.012957 0.000629 0.000002 53.231036 0.000092
0.172017 0.014588 0.000717 0.000002 189.103578 0.000379
0.173571 0.014136 0.000790 0.000002 52.255864 0.000113
0.175168 0.013842 0.000834 0.000002 775.185498 0.001690
0.177010 0.013771 0.000662 0.000002 469.260636 0.000814
0.178287 0.013526 0.000639 0.000002 1017.432145 0.001765
0.179673 0.013476 0.000746 0.000002 272.454441 0.000542
0.182419 0.013466 0.000732 0.000002 516.388779 0.000970
0.183874 0.013797 0.000749 0.000002 1244.808357 0.002432
0.183413 0.012387 0.000735 0.000002 0.000000 0.000000
0.184920 0.012730 0.000745 0.000002 0.000000 0.000000
0.187876 0.012042 0.000751 0.000002 878.196686 0.001847
0.189711 0.012080 0.000702 0.000002 594.138983 0.001308
0.192363 0.011728 0.000797 0.000002 872.054584 0.001817
0.193707 0.011123 0.000677 0.000002 0.000000 0.000000
0.196109 0.011308 0.000733 0.000002 30.775071 0.000056
0.198241 0.012137 0.000687 0.000002 406.925916 0.000701
0.201384 0.011609 0.000587 0.000002 438.557589 0.000671
0.202119 0.010598 0.000663 0.000002 0.675341 0.000001
0.203479 0.010347 0.000720 0.000002 0.000000 0.000000
0.206643 0.012059 0.000668 0.000002 253.096652 0.000436
0.207981 0.012179 0.000676 0.000002 149.634216 0.000230
0.209223 0.012269 0.000570 0.000001 0.000000 0.000000
0.214007 0.010331 0.000701 0.000002 0.000000 0.000000
0.215293 0.009731 0.000711 0.000002 0.000000 0.000000
0.221548 0.009138 0.000817 0.000002 0.000000 0.000000
0.226115 0.008810 0.000640 0.000002 712.220760 0.001175
0.225160 0.007824 0.000732 0.000002 3.030944 0.000006
0.227755 0.006712 0.000823 0.000002 403.131821 0.000922
0.231701 0.005749 0.000702 0.000002 118.887547 0.000227
0.234648 0.005773 0.000540 0.000002 0.000000 0.000000
0.240819 0.005032 0.000749 0.000002 0.000000 0.000000
0.247465 0.004457 0.000646 0.000002 106.421605 0.000198
0.243684 0.003114 0.000688 0.000002 0.000000 0.000000
0.253114 0.001975 0.000682 0.000002 1991.605535 0.003400
0.250434 0.000801 0.000802 0.000002 161.121166 0.000373
0.246574 0.000672 0.000672 0.000002 0.434909 0.000001
0.253485 0.000672 0.000671 0.000002 0.000000 0.000000
0.249093 0.000536 0.000534 0.000002 0.000000 0.000000
0.266202 0.000703 0.000704 0.000002 3002.412225 0.006535
0.001121 0.015903 0.000847 0.000003 333.978195 0.000886
0.002146 0.014563 0.000841 0.000002 17.602296 0.000037
0.003617 0.014628 0.000632 0.000002 1644.812205 0.002965
0.005202 0.015414 0.000594 0.000002 829.633269 0.001453
0.007365 0.015112 0.000654 0.000002 323.482078 0.000588
0.008792 0.015146 0.000774 0.000002 570.159783 0.001100
0.010256 0.015207 0.000693 0.000002 531.606507 0.000963
0.011676 0.015140 0.000729 0.000002 1917.982763 0.003398
0.013089 0.015055 0.000687 0.000002 94.876832 0.000180
0.014553 0.015060 0.000778 0.000002 1414.541699 0.002849
0.015573 0.016189 0.000745 0.000002 1428.851935 0.002641
0.016898 0.015956 0.000601 0.000002 391.985260 0.000675
0.018106 0.015453 0.000708 0.000002 128.317646 0.000227
0.019473 0.015590 0.000667 0.000002 1599.372703 0.002733
0.020301 0.014540 0.000672 0.000002 84.615156 0.000157
0.021655 0.015033 0.000769 0.000002 537.563331 0.001092
0.023065 0.014976 0.000643 0.000002 103.635492 0.000189
0.025364 0.015593 0.000810 0.000002 570.643704 0.001115
0.026898 0.015574 0.000724 0.000002 931.560793 0.001839
0.028138 0.015058 0.000619 0.000002 463.710588 0.000790
0.029606 0.014609 0.000621 0.000002 0.000000 0.000000
0.030317 0.015602 0.000597 0.000002 733.949802 0.001129
0.031617 0.015800 0.000650 0.000002 1299.550901 0.002040
0.032869 0.015905 0.000547 0.000001 534.848169 0.000766
0.034026 0.015417 0.000709 0.000002 260.258628 0.000515
0.035610 0.015071 0.000797 0.000002 479.574086 0.001060
0.037119 0.015276 0.000725 0.000002 424.087964 0.000885
0.038471 0.014932 0.000671 0.000002 34.102360 0.000072
0.039903 0.014728 0.000776 0.000002 2097.205092 0.004027
0.041336 0.014825 0.000660 0.000002 568.272909 0.001007
0.042652 0.014791 0.000657 0.000002 467.049154 0.000792
0.043999 0.014520 0.000717 0.000002 0.096746 0.000000
0.045431 0.014535 0.000716 0.000002 1732.190972 0.003356
0.047203 0.014562 0.000667 0.000002 705.623408 0.001199
0.048527 0.014796 0.000678 0.000002 0.000000 0.000000
0.050011 0.015267 0.000812 0.000002 885.605006 0.001725
0.051198 0.016239 0.000721 0.000002 149.110768 0.000289
0.052719 0.015846 0.000850 0.000002 1273.743501 0.002679
0.054230 0.015651 0.000674 0.000002 92.122544 0.000168
0.055646 0.015379 0.000697 0.000002 439.624208 0.000768
0.057039 0.015198 0.000708 0.000002 710.096902 0.001313
0.058612 0.015055 0.000749 0.000002 513.601253 0.001054
0.059944 0.015661 0.000715 0.000002 345.189784 0.000663
0.061450 0.015490 0.000801 0.000002 610.720605 0.001324
0.063127 0.015741 0.000585 0.000002 199.013528 0.000389
0.064635 0.015521 0.000798 0.000002 1037.663672 0.002141
0.066200 0.015708 0.000672 0.000002 1151.965314 0.002083
0.067756 0.015779 0.000669 0.000002 1623.105623 0.002703
0.069090 0.015713 0.000667 0.000002 12.286517 0.000021
0.070233 0.015137 0.000613 0.000002 12.859084 0.000022
0.071806 0.015248 0.000715 0.000002 1108.247107 0.001978
0.073201 0.014954 0.000710 0.000002 453.168110 0.000813
0.074380 0.015660 0.000665 0.000002 112.519354 0.000198
0.075347 0.014897 0.000551 0.000001 997.551022 0.001415
0.076555 0.015125 0.000679 0.000002 1478.313267 0.002597
0.078146 0.015209 0.000800 0.000002 318.576893 0.000679
0.079681 0.014856 0.000641 0.000002 334.495207 0.000612
0.080823 0.015752 0.000777 0.000002 254.955122 0.000527
0.082627 0.015167 0.000594 0.000002 1224.205981 0.001991
0.083866 0.014818 0.000693 0.000002 260.978259 0.000472
0.085917 0.014970 0.000737 0.000002 431.283422 0.000815
0.087339 0.014994 0.000686 0.000002 105.700091 0.000188
0.088828 0.015002 0.000714 0.000002 1485.509618 0.002919
0.090328 0.015259 0.000808 0.000002 290.730660 0.000628
0.091893 0.015484 0.000774 0.000002 67.503636 0.000148
0.093257 0.015950 0.000669 0.000002 513.796239 0.000923
0.094614 0.015582 0.000737 0.000002 740.193957 0.001379
0.095996 0.015206 0.000696 0.000002 279.475252 0.000538
0.097438 0.015671 0.000820 0.000002 2020.161893 0.004399
0.098955 0.015420 0.000718 0.000002 162.490210 0.000313
0.100440 0.015338 0.000769 0.000002 569.196807 0.001092
0.101976 0.015222 0.000720 0.000002 868.502312 0.001634
0.103329 0.015057 0.000643 0.000002 934.486323 0.001695
0.104598 0.015133 0.000630 0.000002 449.046326 0.000795
0.105945 0.015198 0.000721 0.000002 702.033454 0.001317
0.107427 0.014770 0.000822 0.000002 392.359897 0.000817
0.108837 0.015232 0.000662 0.000002 589.133574 0.001038
0.110200 0.015103 0.000707 0.000002 155.476369 0.000289
0.111559 0.015175 0.000645 0.000002 359.667059 0.000652
0.112973 0.015121 0.000771 0.000002 927.822327 0.001935
0.114490 0.015295 0.000756 0.000002 20.650293 0.000044
0.116050 0.015258 0.000805 0.000002 1182.106657 0.002368
0.117526 0.015625 0.000716 0.000002 921.418398 0.001686
0.118807 0.015207 0.000634 0.000002 27.999406 0.000048
0.120200 0.015169 0.000761 0.000002 784.140009 0.001517
0.121632 0.015016 0.000681 0.000002 955.945677 0.001710
0.122906 0.015329 0.000632 0.000002 498.868902 0.000807
0.124290 0.015498 0.000761 0.000002 358.343837 0.000637
0.125646 0.016066 0.000709 0.000002 607.044433 0.001251
0.127327 0.016254 0.000671 0.000002 1211.785810 0.002601
0.128294 0.015169 0.000783 0.000002 27.076094 0.000055
0.129632 0.015628 0.000633 0.000002 277.651684 0.000509
0.130891 0.015940 0.000664 0.000002 1611.538678 0.002658
0.132204 0.015806 0.000657 0.000002 380.732539 0.000638
0.133528 0.015613 0.000682 0.000002 200.916497 0.000340
0.135009 0.015527 0.000748 0.000002 1228.263199 0.002354
0.136504 0.015463 0.000749 0.000002 12.132010 0.000026
0.137903 0.015681 0.000668 0.000002 305.421569 0.000566
0.139281 0.015549 0.000717 0.000002 927.245948 0.001757
0.140834 0.015548 0.000777 0.000002 223.339806 0.000499
0.142377 0.015649 0.000770 0.000002 313.480107 0.000692
0.144317 0.015596 0.000754 0.000002 1102.635476 0.002341
0.145577 0.015048 0.000620 0.000002 661.674558 0.001135
0.147937 0.014506 0.000749 0.000002 1171.644332 0.002266
0.149269 0.014461 0.000584 0.000002 0.000000 0.000000
0.150565 0.014845 0.000761 0.000002 610.791075 0.001236
0.152547 0.014848 0.000717 0.000002 495.565185 0.001114
0.154074 0.014857 0.000810 0.000002 90.453744 0.000191
0.155692 0.014800 0.000787 0.000002 1130.233803 0.002295
0.157211 0.014652 0.000740 0.000002 750.775626 0.001567
0.158941 0.014578 0.000730 0.000002 161.113069 0.000308
0.160390 0.014369 0.000735 0.000002 891.995096 0.001565
0.161769 0.014327 0.000645 0.000002 223.365645 0.000400
0.163394 0.014119 0.000811 0.000002 494.794283 0.001012
0.164944 0.013931 0.000686 0.000002 43.961583 0.000089
0.166494 0.013750 0.000682 0.000002 927.321228 0.002024
0.167993 0.015073 0.000715 0.000002 319.045008 0.000688
0.169190 0.014424 0.000647 0.000002 450.218798 0.000773
0.170579 0.014316 0.000746 0.000002 33.376775 0.000065
0.172331 0.015882 0.000614 0.000002 330.494936 0.000537
0.173475 0.015510 0.000588 0.000002 7.931210 0.000014
0.174735 0.015302 0.000689 0.000002 555.587187 0.001078
0.176271 0.014954 0.000733 0.000002 523.130772 0.001144
0.177928 0.014963 0.000843 0.000002 907.954925 0.002035
0.179501 0.014865 0.000654 0.000002 221.336753 0.000459
0.181288 0.014515 0.000810 0.000002 987.010800 0.002241
0.182832 0.014931 0.000790 0.000002 358.206144 0.000701
0.185367 0.014164 0.000752 0.000002 0.000000 0.000000
0.187119 0.013401 0.000806 0.000002 1134.457340 0.002619
0.188810 0.013284 0.000803 0.000002 455.389730 0.000999
0.191096 0.012786 0.000854 0.000002 1211.413165 0.002761
0.193744 0.012501 0.000673 0.000002 328.427597 0.000602
0.194851 0.011821 0.000626 0.000002 651.459890 0.001122
0.196865 0.012569 0.000737 0.000002 79.903403 0.000163
0.200224 0.012118 0.000678 0.000002 85.862667 0.000152
0.202642 0.012192 0.000800 0.000002 358.130442 0.000762
0.203959 0.011617 0.000637 0.000002 65.009131 0.000118
0.205292 0.011939 0.000688 0.000002 116.375476 0.000209
0.208630 0.013333 0.000648 0.000002 80.188478 0.000127
0.211738 0.011546 0.000620 0.000002 459.724843 0.000740
0.211469 0.010225 0.000728 0.000002 0.000000 0.000000
0.216349 0.010795 0.000663 0.000002 91.501016 0.000178
0.218600 0.009307 0.000669 0.000002 78.542206 0.000166
0.220026 0.009747 0.000821 0.000002 0.000000 0.000000
0.224885 0.009172 0.000643 0.000002 351.355618 0.000625
0.227262 0.008140 0.000688 0.000002 7.417079 0.000015
0.226179 0.006743 0.000753 0.000002 0.000000 0.000000
0.230806 0.006747 0.000639 0.000002 168.441565 0.000282
0.235588 0.006813 0.000855 0.000002 0.000000 0.000000
0.235471 0.004824 0.000687 0.000002 0.000000 0.000000
0.246122 0.003997 0.000746 0.000002 46.702580 0.000094
0.252486 0.003116 0.000622 0.000002 1153.966391 0.001840
0.249218 0.001907 0.000842 0.000002 0.000000 0.000000
0.252011 0.000768 0.000769 0.000002 0.459869 0.000001
0.254925 0.000749 0.000749 0.000002 0.219940 0.000000
0.243311 0.000731 0.000730 0.000002 0.000000 0.000000
0.256372 0.000686 0.000687 0.000002 1579.458208 0.003106
0.000788 0.017504 0.000788 0.000002 156.330486 0.000361
0.002664 0.015950 0.000640 0.000002 12.922899 0.000026
0.004004 0.015902 0.000701 0.000002 2095.998020 0.003506
0.005102 0.016607 0.000605 0.000001 1040.633265 0.001548
0.006362 0.016100 0.000754 0.000002 391.318332 0.000730
0.007903 0.016583 0.000861 0.000002 235.619631 0.000549
0.009514 0.016491 0.000754 0.000002 535.561081 0.001036
0.010989 0.016420 0.000724 0.000002 1336.532253 0.002462
0.012506 0.016416 0.000794 0.000002 674.960670 0.001342
0.014083 0.016556 0.000792 0.000002 949.503687 0.001950
0.015144 0.017480 0.000617 0.000002 993.348324 0.001732
0.016593 0.017247 0.000726 0.000002 1139.735519 0.001983
0.017967 0.016857 0.000703 0.000002 0.380782 0.000001
0.019332 0.016912 0.000663 0.000002 606.623384 0.001071
0.020752 0.016335 0.000815 0.000002 502.432142 0.001111
0.022532 0.016189 0.000682 0.000002 318.708920 0.000613
0.023933 0.015957 0.000667 0.000002 164.291726 0.000296
0.024889 0.016988 0.000664 0.000002 327.087860 0.000616
0.026228 0.016816 0.000687 0.000002 676.026474 0.001350
0.027880 0.016768 0.000821 0.000002 158.184201 0.000332
0.029109 0.015856 0.000639 0.000002 919.146167 0.001477
0.030720 0.016945 0.000806 0.000002 798.279749 0.001612
0.032253 0.017025 0.000731 0.000002 1257.285627 0.002236
0.033646 0.016846 0.000674 0.000002 402.880572 0.000668
0.035005 0.016478 0.000735 0.000002 412.831947 0.000810
0.036503 0.016642 0.000773 0.000002 389.723738 0.000797
0.038013 0.016768 0.000743 0.000002 1041.951558 0.002139
0.039258 0.016049 0.000696 0.000002 765.064938 0.001470
0.040650 0.015998 0.000698 0.000002 910.375108 0.001629
0.042027 0.015973 0.000680 0.000002 826.365477 0.001431
0.043421 0.015928 0.000716 0.000002 0.017532 0.000000
0.044912 0.015933 0.000776 0.000002 890.546061 0.001735
0.046338 0.015605 0.000688 0.000002 887.372732 0.001607
0.047653 0.015790 0.000641 0.000002 430.460042 0.000706
0.048866 0.016125 0.000619 0.000002 317.325713 0.000505
0.049952 0.016679 0.000601 0.000002 1260.202977 0.002037
0.052362 0.017382 0.000729 0.000002 1096.568184 0.002157
0.053797 0.017028 0.000750 0.000002 43.897857 0.000081
0.055129 0.016616 0.000645 0.000002 391.726036 0.000645
0.056467 0.016503 0.000695 0.000002 0.216050 0.000000
0.057899 0.016366 0.000743 0.000002 1062.112970 0.002178
0.059263 0.016994 0.000759 0.000002 337.465226 0.000703
0.060759 0.016870 0.000743 0.000002 623.891604 0.001167
0.062296 0.016842 0.000794 0.000002 274.477899 0.000535
0.063859 0.016882 0.000771 0.000002 1207.729957 0.002341
0.065393 0.016895 0.000764 0.000002 385.961568 0.000794
0.066927 0.016899 0.000725 0.000002 1798.656220 0.003415
0.068403 0.017053 0.000760 0.000002 820.676951 0.001436
0.069772 0.016872 0.000621 0.000002 664.794374 0.001197
0.070863 0.016229 0.000647 0.000002 234.563826 0.000413
0.072782 0.016397 0.000793 0.000002 596.567460 0.001253
0.074188 0.017086 0.000774 0.000002 104.874888 0.000211
0.075584 0.016011 0.000589 0.000001 1028.286372 0.001534
0.076753 0.016447 0.000660 0.000002 1287.492325 0.002239
0.078108 0.016736 0.000727 0.000002 1276.453827 0.002431
0.079410 0.016165 0.000696 0.000002 82.012453 0.000155
0.081129 0.017334 0.000769 0.000002 372.195899 0.000735
0.082142 0.016324 0.000662 0.000002 1313.491317 0.002261
0.083457 0.016119 0.000669 0.000002 24.658863 0.000040
0.084791 0.015848 0.000692 0.000002 321.845728 0.000596
0.086635 0.016159 0.000653 0.000002 351.153322 0.000609
0.088051 0.016261 0.000767 0.000002 1504.182113 0.002828
0.089519 0.016571 0.000734 0.000002 313.758236 0.000630
0.091010 0.016747 0.000768 0.000002 0.000000 0.000000
0.092490 0.017166 0.000770 0.000002 295.541334 0.000639
0.094178 0.016917 0.000667 0.000002 310.111167 0.000567
0.095687 0.016637 0.000769 0.000002 462.404243 0.000963
0.097045 0.017103 0.000668 0.000002 1969.686619 0.003627
0.098495 0.016761 0.000699 0.000002 172.238557 0.000299
0.099804 0.016577 0.000623 0.000002 0.000000 0.000000
0.101343 0.016470 0.000679 0.000002 1066.601835 0.001948
0.102896 0.016437 0.000804 0.000002 1267.248933 0.002449
0.104295 0.016325 0.000600 0.000002 428.649821 0.000698
0.105517 0.016467 0.000618 0.000002 7.988461 0.000013
0.106961 0.016301 0.000779 0.000002 997.641156 0.001962
0.108314 0.016354 0.000576 0.000002 420.702960 0.000694
0.109537 0.016339 0.000647 0.000002 248.595415 0.000403
0.110879 0.016330 0.000695 0.000002 543.655590 0.000995
0.112328 0.016514 0.000766 0.000002 1005.075268 0.002192
0.113850 0.016674 0.000764 0.000002 0.324379 0.000001
0.115300 0.016552 0.000691 0.000002 317.275759 0.000553
0.116598 0.016534 0.000584 0.000002 1338.266421 0.002106
0.117759 0.016980 0.000660 0.000002 493.111871 0.000821
0.119196 0.016448 0.000667 0.000002 0.010705 0.000000
0.120525 0.016557 0.000666 0.000002 738.791207 0.001411
0.121968 0.016439 0.000783 0.000002 757.798014 0.001469
0.123347 0.016475 0.000597 0.000002 907.151119 0.001499
0.124548 0.016926 0.000686 0.000002 675.010167 0.001180
0.125875 0.017529 0.000771 0.000002 355.237269 0.000754
0.127430 0.017682 0.000762 0.000002 1099.926700 0.002485
0.128824 0.016872 0.000851 0.000002 5.726882 0.000013
0.130319 0.017142 0.000668 0.000002 1159.163981 0.002069
0.131673 0.017025 0.000674 0.000002 411.102826 0.000647
0.132985 0.016816 0.000621 0.000001 378.909011 0.000563
0.134275 0.016741 0.000671 0.000002 809.797809 0.001327
0.135698 0.016865 0.000758 0.000002 575.714977 0.001108
0.137169 0.016850 0.000713 0.000002 254.244249 0.000473
0.138585 0.016871 0.000704 0.000002 0.282991 0.000001
0.140001 0.016785 0.000714 0.000002 1097.682503 0.002166
0.142030 0.017135 0.000757 0.000002 377.036971 0.000800
0.143391 0.016686 0.000677 0.000002 922.442027 0.001736
0.145571 0.016408 0.000740 0.000002 1370.214240 0.002846
0.146913 0.015663 0.000796 0.000002 228.802676 0.000454
0.148386 0.015874 0.000690 0.000002 403.588424 0.000728
0.149751 0.016039 0.000685 0.000002 438.827209 0.000765
0.151109 0.016180 0.000681 0.000002 272.838323 0.000518
0.152501 0.016276 0.000713 0.000002 511.130076 0.000966
0.153845 0.016280 0.000632 0.000002 106.092186 0.000191
0.155184 0.016206 0.000709 0.000002 1010.073201 0.001991
0.156633 0.016027 0.000752 0.000002 623.277627 0.001168
0.158131 0.015721 0.000671 0.000002 327.579905 0.000568
0.159839 0.015706 0.000712 0.000002 112.068928 0.000199
0.161203 0.015508 0.000666 0.000002 959.600635 0.001681
0.162585 0.015405 0.000708 0.000002 378.570065 0.000733
0.164419 0.015158 0.000649 0.000002 281.448107 0.000604
0.166460 0.015262 0.000831 0.000002 754.131829 0.001833
0.168406 0.016474 0.000746 0.000002 582.860067 0.001176
0.169568 0.015677 0.000662 0.000002 89.046692 0.000166
0.170975 0.015757 0.000748 0.000002 0.000000 0.000000
0.173346 0.016960 0.000867 0.000002 411.553850 0.000853
0.174800 0.016616 0.000627 0.000002 394.000232 0.000737
0.176182 0.016449 0.000765 0.000002 441.203973 0.000896
0.177763 0.016567 0.000771 0.000002 794.545310 0.001694
0.179175 0.016174 0.000695 0.000002 140.170819 0.000264
0.180568 0.015875 0.000730 0.000002 1094.757207 0.002163
0.181939 0.016067 0.000654 0.000002 0.000000 0.000000
0.183436 0.016200 0.000616 0.000002 698.615895 0.001248
0.184318 0.015197 0.000720 0.000002 232.784050 0.000458
0.186649 0.014791 0.000662 0.000002 984.085768 0.001785
0.188058 0.014640 0.000749 0.000002 518.402244 0.000983
0.190111 0.013992 0.000671 0.000002 0.000000 0.000000
0.192583 0.013185 0.000676 0.000002 557.123683 0.001142
0.195399 0.013204 0.000861 0.000002 722.418480 0.001669
0.197957 0.013483 0.000688 0.000002 510.592554 0.000937
0.199249 0.013052 0.000673 0.000002 112.441804 0.000222
0.201328 0.012829 0.000635 0.000002 335.054401 0.000561
0.204255 0.013073 0.000848 0.000002 0.000000 0.000000
0.205902 0.013257 0.000741 0.000002 395.101835 0.000719
0.207308 0.013384 0.000664 0.000002 0.000000 0.000000
0.211446 0.012774 0.000642 0.000002 22.939751 0.000041
0.212846 0.010976 0.000626 0.000002 70.908612 0.000111
0.215186 0.011576 0.000738 0.000002 0.209566 0.000000
0.217722 0.010432 0.000758 0.000002 0.000000 0.000000
0.221291 0.010686 0.000751 0.000002 16.145983 0.000037
0.224138 0.010289 0.000701 0.000002 316.915412 0.000587
0.228344 0.009283 0.000629 0.000002 0.000000 0.000000
0.228665 0.007966 0.000726 0.000002 -0.004983 -0.000000
0.229519 0.006700 0.000649 0.000002 0.000000 0.000000
0.234063 0.006857 0.000666 0.000002 0.000000 0.000000
0.238408 0.006362 0.000760 0.000002 295.404845 0.000588
0.246074 0.005520 0.000778 0.000002 0.000000 0.000000
0.250293 0.004789 0.000713 0.000002 2135.659587 0.003928
0.255248 0.003465 0.000771 0.000002 2285.204910 0.004735
0.257443 0.002059 0.000745 0.000002 2819.718185 0.005472
0.257746 0.000674 0.000675 0.000002 1.414470 0.000003
0.259545 0.000668 0.000668 0.000002 65.899718 0.000143
0.260996 0.000775 0.000776 0.000002 2096.197104 0.004705
0.000563 0.018837 0.000564 0.000002 180.487720 0.000282
0.002335 0.017320 0.000770 0.000002 0.000000 0.000000
0.003976 0.017341 0.000739 0.000002 1462.738049 0.002820
0.005233 0.017806 0.000601 0.000001 857.306548 0.001273
0.006367 0.017443 0.000589 0.000002 189.449125 0.000320
0.007541 0.018229 0.000825 0.000002 457.874704 0.000951
0.009040 0.017881 0.000715 0.000002 384.825131 0.000734
0.010335 0.017584 0.000613 0.000002 1409.565782 0.002376
0.011725 0.017797 0.000794 0.000002 310.170450 0.000664
0.013194 0.017633 0.000605 0.000002 948.307986 0.001768
0.014300 0.018569 0.000761 0.000002 91.921268 0.000182
0.015944 0.018461 0.000650 0.000002 1295.238226 0.002336
0.017627 0.018238 0.000707 0.000002 805.798188 0.001499
0.018995 0.018192 0.000661 0.000002 536.631236 0.000911
0.020349 0.017867 0.000732 0.000002 241.143598 0.000461
0.021851 0.017530 0.000809 0.000002 504.238384 0.001082
0.023462 0.017359 0.000812 0.000002 597.423616 0.001236
0.025365 0.018333 0.000764 0.000002 151.379914 0.000305
0.026963 0.018159 0.000845 0.000002 636.302984 0.001360
0.028481 0.018137 0.000674 0.000002 1697.582936 0.003215
0.029292 0.017114 0.000633 0.000002 0.000000 0.000000
0.030132 0.018450 0.000811 0.000002 410.829060 0.000930
0.031688 0.018391 0.000747 0.000002 402.494957 0.000818
0.033170 0.018186 0.000749 0.000002 1021.885682 0.001858
0.034587 0.017856 0.000706 0.000002 289.348143 0.000504
0.035941 0.017951 0.000652 0.000002 392.176816 0.000667
0.037260 0.017960 0.000667 0.000002 315.997051 0.000572
0.038649 0.017988 0.000634 0.000002 762.307448 0.001432
0.040002 0.017395 0.000843 0.000002 1520.461710 0.003243
0.041503 0.017215 0.000669 0.000002 620.189450 0.001184
0.042895 0.017512 0.000755 0.000002 260.730783 0.000480
0.044161 0.017070 0.000586 0.000002 194.307255 0.000355
0.046001 0.017003 0.000751 0.000002 1265.244177 0.002661
0.047511 0.017194 0.000771 0.000002 189.347307 0.000376
0.048921 0.017398 0.000655 0.000002 353.967916 0.000569
0.050879 0.017718 0.000792 0.000002 1124.188737 0.002079
0.051947 0.018722 0.000674 0.000002 1476.883783 0.002356
0.053318 0.018456 0.000710 0.000002 320.509015 0.000534
0.054603 0.018130 0.000616 0.000002 51.103470 0.000086
0.055846 0.017739 0.000688 0.000002 294.133072 0.000533
0.057333 0.017802 0.000801 0.000002 818.435184 0.001771
0.058779 0.018428 0.000754 0.000002 179.275734 0.000345
0.060122 0.018087 0.000631 0.000002 638.721481 0.001043
0.061502 0.018063 0.000662 0.000002 272.076307 0.000488
0.063068 0.018112 0.000692 0.000002 326.201390 0.000617
0.064588 0.018208 0.000743 0.000002 858.195597 0.001670
0.066200 0.018319 0.000873 0.000002 1861.190181 0.004062
0.067665 0.018193 0.000599 0.000002 369.297181 0.000668
0.068879 0.018332 0.000605 0.000002 353.663576 0.000586
0.070312 0.018153 0.000769 0.000002 422.262415 0.000817
0.071617 0.017394 0.000741 0.000002 294.924324 0.000565
0.072962 0.017849 0.000671 0.000002 398.524359 0.000712
0.075675 0.017329 0.000733 0.000002 1036.837004 0.001842
0.077092 0.017838 0.000773 0.000002 1495.072869 0.002845
0.078509 0.018066 0.000663 0.000002 789.896567 0.001414
0.079704 0.017492 0.000664 0.000002 7.136529 0.000014
0.080449 0.018681 0.000739 0.000002 90.414833 0.000173
0.081813 0.018559 0.000630 0.000002 555.576448 0.000899
0.082741 0.017572 0.000725 0.000002 684.224509 0.001305
0.084238 0.017196 0.000661 0.000002 0.452435 0.000001
0.085575 0.016987 0.000692 0.000002 414.397263 0.000774
0.087146 0.017393 0.000683 0.000002 1301.497083 0.002285
0.088549 0.017697 0.000753 0.000002 429.686566 0.000813
0.089971 0.017918 0.000687 0.000002 208.502459 0.000394
0.091406 0.018294 0.000796 0.000002 386.753470 0.000831
0.093582 0.018137 0.000692 0.000002 226.583203 0.000438
0.095072 0.018078 0.000799 0.000002 433.274268 0.000853
0.096490 0.018279 0.000634 0.000002 1403.845727 0.002470
0.098009 0.018072 0.000700 0.000002 785.767760 0.001312
0.099328 0.017815 0.000644 0.000002 4.491842 0.000007
0.100606 0.017582 0.000655 0.000002 230.908231 0.000389
0.102026 0.017754 0.000776 0.000002 1613.148562 0.003184
0.103470 0.017793 0.000670 0.000002 719.465964 0.001285
0.104760 0.017491 0.000656 0.000002 146.834214 0.000258
0.106232 0.017746 0.000840 0.000002 562.340258 0.001319
0.107801 0.017565 0.000740 0.000002 1009.139101 0.001988
0.109209 0.017615 0.000670 0.000002 147.539848 0.000282
0.110627 0.017758 0.000755 0.000002 415.248607 0.000869
0.112152 0.018072 0.000803 0.000002 967.428190 0.002021
0.113559 0.018083 0.000605 0.000002 329.156486 0.000611
0.114744 0.017747 0.000628 0.000002 22.259833 0.000035
0.116115 0.017769 0.000744 0.000002 1286.272958 0.002246
0.117458 0.018193 0.000589 0.000002 95.665864 0.000146
0.118713 0.017880 0.000652 0.000002 476.651448 0.000792
0.120061 0.017839 0.000697 0.000002 704.533613 0.001295
0.121628 0.017854 0.000673 0.000002 571.149837 0.001186
0.123155 0.017915 0.000855 0.000002 549.589986 0.001160
0.124620 0.018260 0.000650 0.000002 591.548776 0.001061
0.126529 0.018958 0.000800 0.000002 524.784988 0.001162
0.128188 0.019125 0.000868 0.000002 1078.892385 0.002595
0.129614 0.018368 0.000747 0.000002 384.341949 0.000863
0.131056 0.018291 0.000697 0.000002 249.698385 0.000441
0.132394 0.018135 0.000651 0.000002 331.797289 0.000547
0.133645 0.017845 0.000602 0.000002 1486.028736 0.002276
0.134914 0.018082 0.000689 0.000002 19.320957 0.000034
0.136380 0.018186 0.000729 0.000002 502.748063 0.000929
0.137837 0.018128 0.000730 0.000002 170.978714 0.000333
0.139396 0.018206 0.000831 0.000002 740.579174 0.001551
0.140831 0.017860 0.000645 0.000002 1028.268038 0.001815
0.143184 0.018043 0.000696 0.000002 708.741652 0.001231
0.144565 0.017538 0.000774 0.000002 426.443813 0.000878
0.146369 0.017751 0.000823 0.000002 858.989223 0.001806
0.147582 0.016933 0.000640 0.000002 487.954551 0.000882
0.148927 0.017164 0.000709 0.000002 0.000000 0.000000
0.150278 0.017235 0.000622 0.000002 441.702019 0.000754
0.151678 0.017564 0.000816 0.000002 705.743643 0.001456
0.153256 0.017544 0.000763 0.000002 205.353712 0.000372
0.154659 0.017451 0.000643 0.000002 1031.872139 0.001844
0.156484 0.017429 0.000659 0.000002 402.924725 0.000784
0.157668 0.016927 0.000620 0.000002 292.781688 0.000476
0.158964 0.016660 0.000584 0.000002 314.790208 0.000520
0.160457 0.016995 0.000716 0.000002 0.000000 0.000000
0.161944 0.016746 0.000778 0.000002 1133.655989 0.002203
0.163607 0.016470 0.000768 0.000002 0.000000 0.000000
0.165239 0.016394 0.000834 0.000002 603.773092 0.001367
0.166972 0.016713 0.000708 0.000002 552.213759 0.001157
0.168902 0.017821 0.000690 0.000002 405.833851 0.000765
0.170109 0.017002 0.000769 0.000002 29.449412 0.000059
0.171680 0.017040 0.000713 0.000002 0.000000 0.000000
0.174236 0.018376 0.000806 0.000002 302.752752 0.000689
0.175495 0.017671 0.000637 0.000002 720.807668 0.001292
0.176878 0.017710 0.000676 0.000002 1037.308663 0.002005
0.178853 0.017481 0.000651 0.000002 108.955489 0.000203
0.180280 0.017357 0.000780 0.000002 1058.819886 0.002080
0.181742 0.017389 0.000683 0.000002 2.650577 0.000005
0.183144 0.017506 0.000724 0.000002 483.982001 0.000878
0.184570 0.017028 0.000780 0.000002 0.000000 0.000000
0.185677 0.015890 0.000806 0.000002 1023.995704 0.002207
0.187390 0.015805 0.000594 0.000002 949.401146 0.001545
0.189356 0.015099 0.000628 0.000002 16.748782 0.000028
0.191654 0.014395 0.000851 0.000002 1821.543992 0.003952
0.193918 0.013942 0.000779 0.000002 0.000000 0.000000
0.196696 0.014129 0.000729 0.000002 0.000000 0.000000
0.199726 0.014396 0.000753 0.000002 222.706977 0.000456
0.201061 0.014059 0.000624 0.000002 261.175946 0.000485
0.202390 0.013719 0.000748 0.000002 91.818136 0.000188
0.205067 0.014418 0.000689 0.000002 226.635157 0.000433
0.209191 0.014465 0.000615 0.000002 323.424255 0.000511
0.210102 0.013353 0.000822 0.000002 70.545324 0.000133
0.212816 0.012477 0.000759 0.000002 3.274417 0.000006
0.213864 0.011633 0.000586 0.000001 0.000000 0.000000
0.217968 0.011864 0.000669 0.000002 0.000000 0.000000
0.224108 0.011654 0.000664 0.000002 417.591593 0.000807
0.222730 0.010419 0.000713 0.000002 0.000000 0.000000
0.227086 0.009751 0.000712 0.000002 0.000000 0.000000
0.230141 0.007967 0.000751 0.000002 34.077598 0.000060
0.231465 0.007777 0.000584 0.000002 89.472241 0.000142
0.232647 0.007202 0.000729 0.000002 1077.338657 0.002097
0.236518 0.005642 0.000639 0.000002 0.000000 0.000000
0.239894 0.006174 0.000719 0.000002 215.766991 0.000417
0.247670 0.005914 0.000825 0.000002 125.757143 0.000255
0.249763 0.003552 0.000581 0.000002 0.000000 0.000000
0.256794 0.003436 0.000777 0.000002 64.109615 0.000128
0.263552 0.001663 0.000629 0.000002 0.000000 0.000000
0.272668 0.000759 0.000760 0.000003 251.034747 0.000701
0.276813 0.000737 0.000736 0.000002 0.000000 0.000000
0.279245 0.011927 0.000763 0.000000 0.000000 0.000000
0.000689 0.020084 0.000689 0.000002 139.338437 0.000248
0.001831 0.018856 0.000705 0.000002 39.681586 0.000079
0.003173 0.018510 0.000681 0.000002 1459.056253 0.002728
0.004545 0.018996 0.000774 0.000002 268.536134 0.000560
0.006141 0.018649 0.000639 0.000002 1148.987769 0.002004
0.007311 0.019825 0.000788 0.000002 309.047407 0.000662
0.008702 0.019266 0.000711 0.000002 227.637701 0.000428
0.010057 0.018869 0.000702 0.000002 1301.496576 0.002369
0.011346 0.019514 0.000740 0.000002 79.387535 0.000164
0.012793 0.018981 0.000802 0.000002 1219.711820 0.002459
0.015357 0.019697 0.000718 0.000002 296.007776 0.000568
0.016892 0.019539 0.000787 0.000002 1005.142016 0.001973
0.018400 0.019443 0.000725 0.000002 1208.690940 0.002335
0.019789 0.019266 0.000675 0.000002 1.238282 0.000002
0.021196 0.019076 0.000745 0.000002 261.118721 0.000498
0.022606 0.018821 0.000687 0.000002 528.481958 0.001027
0.023979 0.018766 0.000688 0.000002 586.453471 0.001083
0.024903 0.019708 0.000632 0.000002 498.562583 0.000858
0.026227 0.019524 0.000706 0.000002 521.767001 0.000990
0.027643 0.019558 0.000711 0.000002 241.647717 0.000450
0.028989 0.019360 0.000651 0.000002 1393.922033 0.002424
0.030030 0.020315 0.000762 0.000002 1160.549825 0.002352
0.031372 0.019785 0.000682 0.000002 153.842717 0.000303
0.032688 0.019513 0.000662 0.000002 12.051159 0.000021
0.034016 0.019334 0.000678 0.000002 1327.935069 0.002253
0.035240 0.018983 0.000596 0.000002 39.907615 0.000061
0.036576 0.019212 0.000760 0.000002 616.014025 0.001227
0.038147 0.019351 0.000819 0.000002 1088.155484 0.002401
0.039687 0.018974 0.000768 0.000002 1110.743255 0.002168
0.041200 0.018635 0.000783 0.000002 420.576378 0.000830
0.042525 0.018761 0.000548 0.000002 0.663206 0.000001
0.043644 0.018618 0.000581 0.000001 173.618390 0.000258
0.044991 0.018173 0.000795 0.000002 578.991145 0.001158
0.046564 0.018450 0.000802 0.000002 915.692184 0.001941
0.048158 0.018475 0.000664 0.000002 0.000000 0.000000
0.049649 0.018500 0.000665 0.000002 378.450755 0.000678
0.050747 0.019083 0.000579 0.000001 693.257798 0.001032
0.052814 0.019710 0.000642 0.000002 1199.269659 0.001952
0.053868 0.020703 0.000807 0.000002 741.125679 0.001466
0.054308 0.019303 0.000593 0.000002 0.000000 0.000000
0.055951 0.019238 0.000814 0.000002 181.424175 0.000425
0.057645 0.019167 0.000601 0.000002 1003.836352 0.001944
0.059837 0.019306 0.000621 0.000002 682.598622 0.001069
0.061047 0.019231 0.000591 0.000002 285.081974 0.000456
0.062451 0.019409 0.000745 0.000002 250.652124 0.000471
0.063794 0.019294 0.000602 0.000002 120.347035 0.000208
0.065184 0.019538 0.000716 0.000002 1494.914668 0.002782
0.066591 0.019872 0.000730 0.000002 688.467377 0.001416
0.068124 0.019490 0.000777 0.000002 403.080456 0.000737
0.069584 0.019413 0.000685 0.000002 427.389690 0.000736
0.070964 0.019453 0.000685 0.000002 753.923245 0.001288
0.071999 0.018684 0.000605 0.000002 265.366236 0.000449
0.073717 0.018994 0.000702 0.000002 732.758429 0.001286
0.074866 0.018386 0.000599 0.000002 592.621709 0.000957
0.076049 0.018825 0.000663 0.000002 58.145101 0.000101
0.077648 0.019324 0.000815 0.000002 1258.757185 0.002568
0.079146 0.019253 0.000685 0.000002 803.104376 0.001490
0.080189 0.020279 0.000778 0.000002 513.022182 0.001010
0.081568 0.019836 0.000671 0.000002 218.386234 0.000369
0.082729 0.019358 0.000585 0.000001 113.011142 0.000168
0.083755 0.018577 0.000704 0.000002 576.681407 0.001058
0.086088 0.018284 0.000703 0.000002 990.100111 0.001834
0.087400 0.018738 0.000686 0.000002 500.330290 0.000850
0.088716 0.019126 0.000686 0.000002 524.277035 0.000928
0.090028 0.019234 0.000630 0.000002 84.702675 0.000156
0.091243 0.019785 0.000704 0.000002 485.092623 0.000881
0.092646 0.019281 0.000786 0.000002 128.069375 0.000271
0.094272 0.019410 0.000755 0.000002 240.770539 0.000478
0.095772 0.019427 0.000722 0.000002 1464.223468 0.002736
0.097339 0.019254 0.000659 0.000002 296.493000 0.000541
0.098890 0.019098 0.000653 0.000002 857.455657 0.001500
0.100204 0.018858 0.000683 0.000002 32.228303 0.000058
0.101609 0.019246 0.000775 0.000002 1516.502394 0.003110
0.102985 0.018993 0.000625 0.000002 388.528579 0.000711
0.104434 0.018935 0.000825 0.000002 221.106788 0.000469
0.106042 0.019434 0.000860 0.000002 486.399546 0.001142
0.107726 0.019037 0.000735 0.000002 731.176961 0.001700
0.109582 0.018983 0.000748 0.000002 69.768190 0.000147
0.111075 0.019207 0.000762 0.000002 797.262615 0.001574
0.112465 0.019469 0.000629 0.000002 554.139792 0.000963
0.113819 0.019390 0.000728 0.000002 229.052338 0.000418
0.115230 0.018909 0.000632 0.000002 0.312679 0.000001
0.116570 0.019175 0.000734 0.000002 1188.519981 0.002108
0.118071 0.019197 0.000588 0.000002 27.275872 0.000044
0.119377 0.019082 0.000722 0.000002 873.760535 0.001508
0.120856 0.019056 0.000757 0.000002 797.435239 0.001597
0.122355 0.019327 0.000768 0.000002 362.837184 0.000762
0.123801 0.019306 0.000679 0.000002 203.713798 0.000367
0.125147 0.019479 0.000678 0.000002 1151.972203 0.001984
0.126150 0.020377 0.000668 0.000002 388.500833 0.000707
0.127680 0.020471 0.000571 0.000002 2.642739 0.000005
0.129062 0.020553 0.000807 0.000002 1395.554273 0.002985
0.130357 0.019676 0.000757 0.000002 125.713853 0.000280
0.131862 0.019503 0.000759 0.000002 310.291761 0.000589
0.133350 0.019179 0.000765 0.000002 1415.462608 0.002529
0.134669 0.019308 0.000561 0.000002 3.560716 0.000006
0.135850 0.019433 0.000627 0.000002 582.323605 0.000916
0.137177 0.019399 0.000701 0.000002 46.359187 0.000087
0.138621 0.019590 0.000756 0.000002 699.304563 0.001579
0.140608 0.019127 0.000642 0.000002 664.744507 0.001274
0.141919 0.018708 0.000734 0.000002 1347.511329 0.002453
0.144187 0.018851 0.000592 0.000002 1008.285172 0.001514
0.145428 0.018881 0.000649 0.000002 100.951759 0.000176
0.146803 0.019160 0.000653 0.000002 885.050248 0.001589
0.147835 0.018263 0.000714 0.000002 192.051660 0.000387
0.148935 0.019285 0.000788 0.000002 462.171106 0.001035
0.150278 0.018584 0.000728 0.000002 42.082888 0.000095
0.151611 0.019070 0.000692 0.000002 786.704651 0.001407
0.152896 0.018866 0.000609 0.000002 5.042581 0.000008
0.154152 0.018656 0.000665 0.000002 1234.267489 0.002014
0.155572 0.018518 0.000762 0.000002 353.319287 0.000680
0.157582 0.018267 0.000722 0.000002 415.429031 0.000778
0.159026 0.017990 0.000748 0.000002 97.040841 0.000202
0.161488 0.018061 0.000614 0.000002 427.798178 0.000787
0.162971 0.017847 0.000729 0.000002 543.095183 0.001047
0.164459 0.017785 0.000761 0.000002 437.173655 0.000898
0.165991 0.017770 0.000734 0.000002 556.580699 0.001130
0.167524 0.018008 0.000700 0.000002 260.923727 0.000463
0.169352 0.019116 0.000682 0.000002 279.134157 0.000475
0.170596 0.018346 0.000661 0.000002 0.000000 0.000000
0.172550 0.018223 0.000627 0.000002 117.177169 0.000233
0.173134 0.019454 0.000736 0.000002 49.540557 0.000094
0.176108 0.019012 0.000838 0.000002 1160.349414 0.002523
0.178001 0.018607 0.000762 0.000002 88.111216 0.000178
0.179572 0.018791 0.000819 0.000002 897.007249 0.001857
0.181005 0.018568 0.000630 0.000002 0.000000 0.000000
0.182306 0.018619 0.000669 0.000002 71.525691 0.000117
0.183896 0.018648 0.000645 0.000002 429.660833 0.000763
0.185230 0.018374 0.000718 0.000002 639.538199 0.001176
0.186056 0.017290 0.000645 0.000002 572.845118 0.001037
0.187261 0.016987 0.000596 0.000002 1004.689663 0.001613
0.188607 0.016165 0.000675 0.000002 32.534555 0.000054
0.190557 0.015340 0.000597 0.000002 123.646304 0.000205
0.193035 0.015178 0.000737 0.000002 0.000000 0.000000
0.195291 0.014879 0.000818 0.000002 667.783212 0.001497
0.198264 0.014895 0.000758 0.000002 416.293248 0.000874
0.200865 0.015371 0.000704 0.000002 108.393376 0.000209
0.202348 0.015252 0.000784 0.000002 340.662229 0.000675
0.203663 0.014524 0.000719 0.000002 0.000000 0.000000
0.207838 0.014705 0.000757 0.000002 178.498928 0.000360
0.212093 0.014065 0.000801 0.000002 30.969487 0.000068
0.213609 0.013911 0.000723 0.000002 0.000000 0.000000
0.214199 0.012750 0.000579 0.000002 0.000000 0.000000
0.216694 0.012368 0.000698 0.000002 0.000000 0.000000
0.219109 0.011022 0.000749 0.000002 0.000000 0.000000
0.225265 0.011089 0.000624 0.000002 387.847206 0.000627
0.225806 0.010002 0.000591 0.000001 0.000000 0.000000
0.229673 0.009340 0.000699 0.000002 0.000000 0.000000
0.233902 0.008227 0.000713 0.000002 54.319506 0.000104
0.236858 0.008040 0.000744 0.000002 141.683603 0.000285
0.237105 0.006728 0.000591 0.000002 0.000000 0.000000
0.242567 0.005804 0.000712 0.000002 0.000000 0.000000
0.250321 0.006175 0.000674 0.000002 2193.194592 0.003924
0.253817 0.003267 0.000652 0.000002 149.432127 0.000272
0.256141 0.004741 0.000681 0.000002 0.000000 0.000000
0.276339 0.003620 0.000739 0.000002 0.000000 0.000000
0.258790 0.001736 0.000640 0.000002 0.000000 0.000000
0.270936 0.000734 0.000734 0.000002 0.000000 0.000000
0.280499 0.000690 0.000690 0.000002 185.081378 0.000452
0.000660 0.021433 0.000660 0.000002 25.826048 0.000049
0.001796 0.020811 0.000635 0.000002 650.003105 0.001186
0.002842 0.019903 0.000751 0.000002 1090.133300 0.002282
0.004459 0.020484 0.000717 0.000002 353.382591 0.000735
0.005805 0.019969 0.000724 0.000002 846.570971 0.001650
0.008547 0.020689 0.000720 0.000002 397.753995 0.000803
0.009871 0.020236 0.000679 0.000002 1183.559005 0.002141
0.011094 0.020922 0.000690 0.000002 1.552543 0.000003
0.012448 0.020443 0.000701 0.000002 1118.725865 0.002032
0.013931 0.020030 0.000746 0.000002 420.961369 0.000804
0.016187 0.020847 0.000700 0.000002 562.247369 0.001089
0.017658 0.020896 0.000773 0.000002 718.806022 0.001542
0.019293 0.020762 0.000869 0.000002 1232.353786 0.002745
0.020821 0.020460 0.000690 0.000002 278.888960 0.000521
0.022207 0.020177 0.000726 0.000002 327.772451 0.000563
0.023633 0.020111 0.000701 0.000002 394.768935 0.000680
0.024280 0.021345 0.000692 0.000002 144.771961 0.000265
0.025660 0.020880 0.000764 0.000002 706.145718 0.001317
0.027163 0.020927 0.000740 0.000002 280.213527 0.000550
0.028547 0.020615 0.000680 0.000002 563.666353 0.001016
0.029452 0.021665 0.000708 0.000002 1376.275115 0.002707
0.030935 0.021562 0.000780 0.000002 474.094801 0.000991
0.032206 0.020855 0.000675 0.000002 2.699253 0.000005
0.033657 0.020747 0.000781 0.000002 883.113162 0.001751
0.035022 0.020239 0.000676 0.000002 141.192554 0.000256
0.036339 0.020661 0.000708 0.000002 672.466386 0.001380
0.037863 0.020998 0.000853 0.000002 1334.012061 0.003025
0.039297 0.020392 0.000704 0.000002 223.292168 0.000428
0.040558 0.020023 0.000597 0.000002 716.118489 0.001233
0.041868 0.019975 0.000714 0.000002 571.090905 0.001054
0.043233 0.019800 0.000663 0.000002 159.902029 0.000258
0.044471 0.019483 0.000616 0.000002 504.755150 0.000793
0.045810 0.019826 0.000767 0.000002 399.327206 0.000833
0.047437 0.019650 0.000682 0.000002 537.032204 0.001024
0.048903 0.019747 0.000789 0.000002 179.943416 0.000363
0.050286 0.020262 0.000687 0.000002 840.324833 0.001491
0.051569 0.019969 0.000630 0.000002 459.832778 0.000698
0.052412 0.020960 0.000671 0.000002 723.658259 0.001338
0.055451 0.020750 0.000778 0.000002 370.413921 0.000794
0.057047 0.020479 0.000842 0.000002 773.379152 0.001645
0.058670 0.020145 0.000816 0.000002 72.719134 0.000156
0.060091 0.020568 0.000667 0.000002 754.796501 0.001313
0.061455 0.020458 0.000702 0.000002 157.100607 0.000279
0.062784 0.020915 0.000704 0.000002 809.534509 0.001479
0.064175 0.020571 0.000730 0.000002 1128.851381 0.002101
0.065584 0.020919 0.000722 0.000002 278.427752 0.000518
0.067595 0.020811 0.000645 0.000002 1215.623505 0.001951
0.068865 0.020689 0.000631 0.000002 0.027552 0.000000
0.070239 0.020683 0.000744 0.000002 949.111548 0.001721
0.071594 0.020590 0.000615 0.000002 1128.957179 0.001817
0.072610 0.019803 0.000671 0.000002 63.031248 0.000103
0.073838 0.020374 0.000684 0.000002 134.044469 0.000218
0.075011 0.019620 0.000644 0.000002 646.314832 0.001002
0.076314 0.020118 0.000658 0.000002 2.582366 0.000004
0.077426 0.020735 0.000614 0.000002 1136.610518 0.001988
0.078736 0.020582 0.000706 0.000002 172.692121 0.000318
0.081378 0.021257 0.000763 0.000002 919.637827 0.001785
0.082645 0.020615 0.000658 0.000002 124.680769 0.000216
0.083862 0.019988 0.000712 0.000002 1000.420936 0.001787
0.085017 0.019182 0.000697 0.000002 1301.867671 0.002561
0.086373 0.019635 0.000678 0.000002 156.826653 0.000271
0.087666 0.020092 0.000694 0.000002 250.504613 0.000416
0.089016 0.020493 0.000714 0.000002 319.549455 0.000580
0.090366 0.020865 0.000687 0.000002 257.449695 0.000496
0.092268 0.020662 0.000645 0.000002 475.671073 0.000817
0.093596 0.020680 0.000684 0.000002 214.840870 0.000409
0.095049 0.020730 0.000769 0.000002 1423.714605 0.002713
0.096482 0.020622 0.000668 0.000002 44.625082 0.000081
0.097859 0.020522 0.000712 0.000002 261.100829 0.000470
0.099202 0.020353 0.000641 0.000002 834.811005 0.001539
0.100555 0.020294 0.000713 0.000002 735.835251 0.001439
0.101978 0.020760 0.000785 0.000002 734.435495 0.001544
0.103448 0.020254 0.000719 0.000002 373.014232 0.000763
0.104820 0.020366 0.000658 0.000002 127.827935 0.000241
0.106013 0.020976 0.000683 0.000002 779.606297 0.001407
0.107269 0.020398 0.000701 0.000002 721.474248 0.001415
0.108678 0.020150 0.000729 0.000002 189.494962 0.000386
0.110143 0.020408 0.000759 0.000002 477.474826 0.000949
0.111668 0.020623 0.000774 0.000002 458.466756 0.000854
0.113078 0.020575 0.000637 0.000002 340.536787 0.000553
0.115805 0.020406 0.000716 0.000002 106.658800 0.000217
0.117258 0.020476 0.000738 0.000002 895.300469 0.001698
0.118690 0.020330 0.000703 0.000002 791.341440 0.001449
0.120120 0.020345 0.000728 0.000002 772.908583 0.001595
0.121615 0.020725 0.000815 0.000002 228.720515 0.000504
0.123187 0.020610 0.000762 0.000002 344.202173 0.000687
0.124580 0.020659 0.000632 0.000002 1137.628578 0.001906
0.125512 0.021498 0.000622 0.000002 286.850816 0.000495
0.126931 0.021618 0.000799 0.000002 152.605165 0.000292
0.128403 0.021910 0.000702 0.000002 797.672263 0.001597
0.129905 0.021721 0.000633 0.000002 402.253609 0.000773
0.131228 0.020968 0.000801 0.000002 58.463702 0.000120
0.132576 0.020639 0.000584 0.000002 374.770922 0.000629
0.133776 0.020500 0.000624 0.000002 1318.836791 0.002160
0.135166 0.020657 0.000776 0.000002 534.130779 0.000916
0.136533 0.020525 0.000597 0.000002 0.000000 0.000000
0.138629 0.021054 0.000709 0.000002 993.021781 0.001943
0.140008 0.020439 0.000802 0.000002 229.784442 0.000474
0.141654 0.020209 0.000791 0.000002 935.874904 0.001961
0.143091 0.019520 0.000692 0.000002 13.235795 0.000023
0.144535 0.020055 0.000662 0.000002 834.657814 0.001302
0.145890 0.020114 0.000668 0.000002 303.838882 0.000482
0.147320 0.020377 0.000669 0.000002 518.738479 0.000918
0.148556 0.020607 0.000588 0.000002 494.775160 0.000769
0.149773 0.020441 0.000640 0.000002 1.852286 0.000003
0.151107 0.020363 0.000696 0.000002 346.264903 0.000608
0.152425 0.020119 0.000636 0.000002 492.502825 0.000780
0.153700 0.019898 0.000658 0.000002 1195.602771 0.001935
0.155043 0.019865 0.000686 0.000002 211.776793 0.000386
0.156741 0.019466 0.000743 0.000002 305.671523 0.000636
0.158410 0.019459 0.000730 0.000002 102.980960 0.000220
0.160314 0.018761 0.000754 0.000002 356.962694 0.000796
0.162280 0.019146 0.000729 0.000002 257.603109 0.000493
0.163736 0.019086 0.000728 0.000002 754.982688 0.001364
0.165267 0.019126 0.000804 0.000002 772.505981 0.001573
0.166738 0.019127 0.000667 0.000002 63.984397 0.000118
0.168133 0.019085 0.000537 0.000002 246.694028 0.000383
0.170428 0.020022 0.000724 0.000002 416.648090 0.000873
0.171671 0.019261 0.000733 0.000002 2.320403 0.000004
0.172244 0.020505 0.000636 0.000002 0.000000 0.000000
0.173621 0.020861 0.000753 0.000002 1309.586978 0.002496
0.174751 0.019855 0.000761 0.000002 0.000000 0.000000
0.177331 0.019836 0.000638 0.000002 258.782162 0.000459
0.178670 0.020032 0.000716 0.000002 858.988349 0.001691
0.180373 0.020193 0.000796 0.000002 97.436275 0.000224
0.181827 0.019889 0.000689 0.000002 45.861867 0.000087
0.183109 0.019635 0.000618 0.000002 110.928578 0.000191
0.186064 0.019460 0.000593 0.000002 332.999723 0.000625
0.187036 0.018406 0.000841 0.000002 1002.179694 0.002059
0.188385 0.017434 0.000613 0.000002 49.951908 0.000080
0.189919 0.016427 0.000663 0.000002 96.289686 0.000171
0.191764 0.016002 0.000762 0.000002 1304.480949 0.002724
0.194238 0.015931 0.000671 0.000002 111.968124 0.000221
0.195668 0.016380 0.000730 0.000002 352.073270 0.000707
0.196842 0.015472 0.000615 0.000002 0.000000 0.000000
0.199447 0.015956 0.000831 0.000002 483.748058 0.001029
0.203226 0.016454 0.000704 0.000002 288.256348 0.000580
0.206028 0.015811 0.000775 0.000002 0.000000 0.000000
0.206479 0.014488 0.000618 0.000002 0.000000 0.000000
0.210349 0.014700 0.000547 0.000002 0.000000 0.000000
0.215663 0.014379 0.000725 0.000002 102.380005 0.000202
0.215448 0.012981 0.000690 0.000002 0.000000 0.000000
0.218220 0.013336 0.000649 0.000002 -3.873381 -0.000006
0.220545 0.011940 0.000708 0.000002 0.000000 0.000000
0.225881 0.012361 0.000791 0.000002 199.359286 0.000457
0.228040 0.010805 0.000707 0.000002 0.000000 0.000000
0.229462 0.010741 0.000716 0.000002 0.000000 0.000000
0.232535 0.008636 0.000712 0.000002 0.000000 0.000000
0.235291 0.008292 0.000653 0.000002 0.000000 0.000000
0.239482 0.007565 0.000733 0.000002 0.000000 0.000000
0.241264 0.006376 0.000666 0.000002 0.000000 0.000000
0.242046 0.004562 0.000565 0.000002 0.000000 0.000000
0.248846 0.004887 0.000737 0.000002 0.000000 0.000000
0.257748 0.004558 0.000695 0.000002 2386.566323 0.005252
0.255924 0.002076 0.000776 0.000002 0.717745 0.000001
0.254469 0.002105 0.000681 0.000002 0.000000 0.000000
0.271982 0.002107 0.000752 0.000002 379.669919 0.000771
0.267066 0.001879 0.000701 0.000002 709.323047 0.001498
0.284753 0.000691 0.000686 0.000002 0.000000 0.000000
0.000707 0.023190 0.000708 0.000002 1322.944247 0.002731
0.001873 0.022241 0.000797 0.000002 567.537334 0.001119
0.003246 0.021409 0.000810 0.000002 565.957365 0.001199
0.005569 0.021306 0.000634 0.000002 696.961346 0.001211
0.007040 0.021434 0.000843 0.000002 84.289174 0.000191
0.008498 0.022224 0.000815 0.000002 575.215091 0.001309
0.009887 0.021616 0.000702 0.000002 544.844612 0.001029
0.012196 0.021885 0.000764 0.000002 652.525994 0.001195
0.013446 0.021302 0.000616 0.000002 381.443693 0.000649
0.014801 0.021235 0.000740 0.000002 0.000000 0.000000
0.016296 0.022302 0.000760 0.000002 315.634006 0.000591
0.017643 0.022257 0.000589 0.000002 651.274164 0.001177
0.018973 0.022342 0.000745 0.000002 598.447822 0.001243
0.020478 0.021846 0.000738 0.000002 1039.629070 0.002057
0.021788 0.021463 0.000627 0.000002 68.719529 0.000116
0.022994 0.021243 0.000599 0.000001 504.396268 0.000756
0.023091 0.022505 0.000667 0.000002 247.796938 0.000451
0.025258 0.022169 0.000587 0.000002 828.718756 0.001281
0.026556 0.022246 0.000713 0.000002 215.223551 0.000400
0.028056 0.022202 0.000788 0.000002 0.000000 0.000000
0.029284 0.023071 0.000709 0.000002 1091.892341 0.002272
0.031010 0.023150 0.000810 0.000002 285.694247 0.000671
0.032179 0.022271 0.000652 0.000002 213.491921 0.000390
0.033510 0.022202 0.000681 0.000002 644.904739 0.001250
0.034995 0.021774 0.000859 0.000002 0.000000 0.000000
0.036498 0.022017 0.000658 0.000002 496.384316 0.000971
0.037761 0.022567 0.000720 0.000002 1126.982787 0.002243
0.039085 0.021972 0.000710 0.000002 18.398647 0.000035
0.040375 0.021336 0.000729 0.000002 958.846076 0.001766
0.041854 0.021444 0.000755 0.000002 525.923994 0.001030
0.043297 0.021174 0.000713 0.000002 99.156647 0.000187
0.044584 0.020740 0.000647 0.000002 180.874156 0.000323
0.045642 0.021596 0.000714 0.000002 801.028142 0.001551
0.046817 0.020856 0.000675 0.000002 686.607383 0.001258
0.048204 0.021100 0.000734 0.000002 56.358134 0.000109
0.049600 0.021483 0.000714 0.000002 511.954290 0.000936
0.051076 0.021476 0.000762 0.000002 650.360952 0.001261
0.053231 0.022152 0.000776 0.000002 1144.787078 0.002306
0.054661 0.021961 0.000668 0.000002 51.712517 0.000097
0.056395 0.021821 0.000650 0.000002 300.671590 0.000564
0.057719 0.021838 0.000675 0.000002 823.498512 0.001563
0.059185 0.021716 0.000796 0.000002 527.526079 0.001038
0.060653 0.021786 0.000674 0.000002 51.176182 0.000089
0.061949 0.021960 0.000634 0.000002 669.876069 0.001081
0.063213 0.022139 0.000592 0.000002 137.779984 0.000216
0.064591 0.021944 0.000706 0.000002 1072.644334 0.001989
0.066684 0.021695 0.000625 0.000002 773.749480 0.001250
0.068030 0.022018 0.000638 0.000002 532.641158 0.000864
0.069487 0.022053 0.000819 0.000002 195.016075 0.000391
0.071143 0.021912 0.000782 0.000002 1018.377547 0.002092
0.072743 0.021191 0.000682 0.000002 113.073641 0.000195
0.074022 0.021768 0.000722 0.000002 587.760539 0.000958
0.075041 0.020888 0.000625 0.000002 230.935925 0.000400
0.076293 0.021627 0.000830 0.000002 1047.447803 0.002189
0.078130 0.022022 0.000854 0.000002 398.912998 0.000920
0.079637 0.021657 0.000696 0.000002 110.935203 0.000209
0.080690 0.022480 0.000641 0.000002 664.545287 0.001297
0.082518 0.022190 0.000711 0.000002 898.744270 0.001883
0.083878 0.021510 0.000810 0.000002 645.560532 0.001390
0.085290 0.020681 0.000828 0.000002 992.009194 0.002081
0.086711 0.021010 0.000631 0.000002 194.533345 0.000357
0.087973 0.021461 0.000709 0.000002 543.496587 0.000945
0.089384 0.021906 0.000745 0.000002 0.000000 0.000000
0.091447 0.021706 0.000684 0.000002 447.597735 0.000777
0.092873 0.021929 0.000760 0.000002 602.570988 0.001082
0.094373 0.022089 0.000750 0.000002 1251.937114 0.002397
0.095824 0.021980 0.000702 0.000002 17.704302 0.000033
0.097214 0.021782 0.000703 0.000002 44.391543 0.000079
0.098766 0.021695 0.000770 0.000002 957.492827 0.001908
0.100383 0.021789 0.000792 0.000002 533.468947 0.001092
0.101707 0.022080 0.000563 0.000002 525.726858 0.000855
0.103224 0.021786 0.000829 0.000002 538.052818 0.001132
0.104816 0.021786 0.000763 0.000002 200.602433 0.000414
0.106177 0.022282 0.000634 0.000002 595.344499 0.001036
0.107551 0.021871 0.000800 0.000002 415.914133 0.000858
0.109144 0.021620 0.000813 0.000002 315.738834 0.000665
0.110720 0.021733 0.000687 0.000002 699.981813 0.001294
0.112280 0.021934 0.000673 0.000002 0.186988 0.000000
0.113577 0.021748 0.000638 0.000002 344.270931 0.000586
0.114414 0.020692 0.000704 0.000002 363.760330 0.000677
0.116447 0.021751 0.000773 0.000002 451.408125 0.000927
0.118138 0.021659 0.000737 0.000002 1097.356269 0.002243
0.119678 0.021818 0.000811 0.000002 702.212019 0.001447
0.121094 0.022072 0.000628 0.000002 0.010695 0.000000
0.122559 0.022080 0.000837 0.000002 504.966240 0.001086
0.124088 0.021900 0.000703 0.000002 833.575745 0.001602
0.125209 0.022859 0.000772 0.000002 636.193467 0.001270
0.126598 0.023001 0.000624 0.000002 95.725422 0.000183
0.127971 0.023338 0.000790 0.000002 906.101572 0.001749
0.129409 0.022955 0.000698 0.000002 147.770424 0.000268
0.131043 0.022512 0.000754 0.000002 606.486562 0.001183
0.132408 0.021939 0.000727 0.000002 303.713899 0.000549
0.133753 0.021754 0.000632 0.000002 1140.095657 0.001867
0.134923 0.021969 0.000559 0.000002 356.912728 0.000592
0.136138 0.021738 0.000678 0.000002 595.134335 0.000912
0.137414 0.021565 0.000610 0.000002 172.133778 0.000282
0.139741 0.021995 0.000748 0.000002 285.597661 0.000585
0.140999 0.021458 0.000620 0.000002 841.452481 0.001454
0.142465 0.021592 0.000813 0.000002 262.619852 0.000549
0.143501 0.020697 0.000555 0.000002 0.000000 0.000000
0.145158 0.021182 0.000627 0.000002 1104.121906 0.001777
0.146441 0.021390 0.000672 0.000002 172.188637 0.000279
0.147806 0.021681 0.000722 0.000002 650.395658 0.001080
0.149240 0.021713 0.000712 0.000002 126.877951 0.000214
0.150545 0.021536 0.000605 0.000002 71.532664 0.000121
0.152041 0.021391 0.000694 0.000002 710.660570 0.001248
0.153436 0.021240 0.000710 0.000002 941.645490 0.001621
0.154771 0.021150 0.000628 0.000002 100.270253 0.000161
0.156114 0.020820 0.000749 0.000002 352.250619 0.000648
0.157592 0.020647 0.000713 0.000002 125.219781 0.000245
0.159709 0.020106 0.000721 0.000002 436.004542 0.000851
0.161220 0.020238 0.000792 0.000002 0.000000 0.000000
0.163057 0.020263 0.000631 0.000002 979.427901 0.001651
0.164400 0.020286 0.000644 0.000002 118.585405 0.000213
0.166081 0.020568 0.000853 0.000002 596.721770 0.001315
0.167589 0.020196 0.000700 0.000002 291.403166 0.000540
0.168965 0.020441 0.000698 0.000002 8.198932 0.000015
0.171082 0.021368 0.000773 0.000002 347.921369 0.000698
0.172511 0.021850 0.000735 0.000002 682.328688 0.001248
0.174974 0.021400 0.000703 0.000002 513.508218 0.001002
0.176175 0.020592 0.000745 0.000002 470.791144 0.000902
0.177654 0.021141 0.000707 0.000002 0.000000 0.000000
0.179344 0.021266 0.000691 0.000002 589.889936 0.001138
0.181941 0.021323 0.000749 0.000002 26.975722 0.000059
0.183705 0.020841 0.000727 0.000002 395.486803 0.000770
0.184744 0.019773 0.000764 0.000002 404.751655 0.000765
0.187907 0.019724 0.000740 0.000002 1560.762650 0.003173
0.188643 0.018613 0.000594 0.000002 203.467575 0.000338
0.189674 0.017792 0.000724 0.000002 64.914418 0.000119
0.191061 0.017327 0.000739 0.000002 975.434061 0.001936
0.193080 0.016811 0.000784 0.000002 497.574530 0.001091
0.194526 0.017325 0.000752 0.000002 202.979509 0.000421
0.197921 0.016362 0.000749 0.000002 228.241743 0.000477
0.201796 0.016470 0.000553 0.000002 0.000000 0.000000
0.204494 0.015739 0.000752 0.000002 31.189448 0.000064
0.207852 0.016257 0.000796 0.000002 55.620362 0.000126
0.209295 0.015795 0.000719 0.000002 52.044725 0.000101
0.211366 0.015307 0.000637 0.000002 34.119536 0.000058
0.214464 0.015113 0.000682 0.000002 11.321463 0.000021
0.216951 0.013779 0.000696 0.000002 0.000000 0.000000
0.219241 0.012461 0.000695 0.000002 0.000000 0.000000
0.221690 0.012875 0.000730 0.000002 110.418052 0.000219
0.222733 0.011859 0.000727 0.000002 29.070499 0.000060
0.226587 0.011060 0.000685 0.000002 0.000000 0.000000
0.230822 0.010397 0.000647 0.000002 456.635303 0.000804
0.231150 0.009056 0.000734 0.000002 35.269912 0.000063
0.236286 0.009297 0.000637 0.000002 69.118341 0.000121
0.240138 0.008810 0.000672 0.000002 0.000000 0.000000
0.243599 0.006790 0.000646 0.000002 920.685284 0.001776
0.244311 0.005646 0.000702 0.000002 103.043293 0.000214
0.251555 0.005521 0.000723 0.000002 439.947547 0.000900
0.259831 0.004959 0.000706 0.000002 40.168517 0.000095
0.258295 0.003252 0.000722 0.000002 140.869689 0.000299
0.262128 0.001900 0.000686 0.000002 4427.291772 0.008106
0.279454 0.003522 0.000738 0.000002 0.000000 0.000000
0.278076 0.003396 0.000632 0.000002 3070.040928 0.006327
0.279728 0.001891 0.000738 0.000002 6.254328 0.000014
0.268016 0.011827 0.000612 0.000000 0.000000 0.000000
0.000698 0.024580 0.000683 0.000002 608.174676 0.001147
0.002018 0.023750 0.000719 0.000002 438.466486 0.000826
0.003227 0.022949 0.000731 0.000002 399.621918 0.000798
0.004560 0.022272 0.000764 0.000002 938.775454 0.001867
0.005930 0.022514 0.000628 0.000002 155.226611 0.000299
0.007189 0.023099 0.000761 0.000002 707.113930 0.001563
0.009645 0.023155 0.000662 0.000002 358.195193 0.000694
0.010904 0.022600 0.000714 0.000002 1228.222243 0.002233
0.013505 0.022688 0.000773 0.000002 769.652225 0.001433
0.014926 0.022631 0.000650 0.000002 173.388384 0.000298
0.015768 0.023555 0.000601 0.000002 30.220349 0.000053
0.017187 0.023478 0.000716 0.000002 972.452639 0.001841
0.018619 0.023795 0.000751 0.000002 25.379594 0.000052
0.019706 0.024662 0.000639 0.000002 1857.265822 0.003368
0.020134 0.023317 0.000773 0.000002 771.314260 0.001543
0.021664 0.022899 0.000814 0.000002 0.000000 0.000000
0.024338 0.023078 0.000707 0.000002 444.183977 0.000771
0.025708 0.023368 0.000693 0.000002 698.003390 0.001199
0.027268 0.023585 0.000804 0.000002 33.180067 0.000070
0.028576 0.024241 0.000659 0.000002 589.110744 0.001078
0.030000 0.024365 0.000771 0.000002 741.858855 0.001517
0.031650 0.024680 0.000849 0.000002 285.431745 0.000630
0.032805 0.023547 0.000769 0.000002 48.998832 0.000103
0.034301 0.023378 0.000737 0.000002 704.313008 0.001442
0.035778 0.023223 0.000748 0.000002 329.098907 0.000669
0.037103 0.023838 0.000713 0.000002 566.311115 0.001179
0.038995 0.023537 0.000850 0.000002 952.353339 0.002002
0.040225 0.022696 0.000641 0.000002 544.947035 0.000911
0.041486 0.022773 0.000624 0.000002 457.856995 0.000785
0.042828 0.022570 0.000734 0.000002 172.067197 0.000333
0.044310 0.022269 0.000779 0.000002 174.335534 0.000362
0.045770 0.023005 0.000701 0.000002 295.980114 0.000534
0.047168 0.022327 0.000838 0.000002 537.548094 0.001085
0.048626 0.022397 0.000622 0.000002 351.199689 0.000617
0.050190 0.022706 0.000643 0.000002 177.843585 0.000319
0.051504 0.022851 0.000678 0.000002 445.142633 0.000868
0.052667 0.023431 0.000622 0.000002 1046.265274 0.001741
0.054160 0.023272 0.000680 0.000002 465.252892 0.000810
0.055522 0.023029 0.000704 0.000002 0.802985 0.000002
0.057014 0.023122 0.000791 0.000002 1098.361752 0.002075
0.058435 0.022932 0.000633 0.000002 0.000000 0.000000
0.059980 0.023004 0.000718 0.000002 549.065079 0.000995
0.061353 0.023108 0.000660 0.000002 657.118255 0.001049
0.062638 0.023217 0.000630 0.000001 40.360801 0.000060
0.063953 0.023181 0.000686 0.000002 927.580543 0.001622
0.065800 0.022722 0.000732 0.000002 929.878353 0.001734
0.067117 0.022811 0.000572 0.000002 484.513374 0.000745
0.068539 0.023259 0.000703 0.000002 250.193843 0.000456
0.070441 0.023099 0.000597 0.000002 386.552909 0.000736
0.071776 0.023310 0.000754 0.000002 1178.078888 0.002125
0.072885 0.022490 0.000626 0.000002 0.000000 0.000000
0.073987 0.023076 0.000587 0.000002 224.211658 0.000352
0.075145 0.022589 0.000669 0.000002 444.407921 0.000778
0.076419 0.023158 0.000707 0.000002 640.706340 0.001316
0.077848 0.023660 0.000808 0.000002 236.712184 0.000515
0.079325 0.023021 0.000703 0.000002 153.762073 0.000294
0.080526 0.023890 0.000780 0.000002 1065.051257 0.002001
0.081992 0.023530 0.000730 0.000002 371.844160 0.000780
0.083738 0.023168 0.000854 0.000002 406.411203 0.000971
0.085261 0.022282 0.000774 0.000002 843.974959 0.001912
0.086824 0.022434 0.000797 0.000002 106.829306 0.000218
0.088266 0.022794 0.000657 0.000002 437.286911 0.000764
0.089340 0.023585 0.000677 0.000002 164.963711 0.000306
0.090584 0.022864 0.000761 0.000002 135.140035 0.000270
0.091933 0.022837 0.000547 0.000002 229.846740 0.000405
0.093494 0.023317 0.000761 0.000002 1150.641004 0.002195
0.094883 0.023336 0.000598 0.000002 481.140164 0.000820
0.096612 0.023045 0.000624 0.000002 0.014341 0.000000
0.097997 0.023019 0.000761 0.000002 580.507107 0.001132
0.099481 0.023000 0.000719 0.000002 803.204913 0.001531
0.101024 0.023061 0.000632 0.000002 486.431707 0.000782
0.102445 0.023072 0.000674 0.000002 455.610357 0.000757
0.103752 0.023152 0.000635 0.000002 289.665470 0.000559
0.105175 0.023304 0.000797 0.000002 654.577825 0.001343
0.107042 0.023219 0.000640 0.000002 206.513590 0.000385
0.108524 0.022946 0.000650 0.000002 580.301257 0.001125
0.109960 0.022908 0.000712 0.000002 795.897027 0.001426
0.111316 0.022924 0.000644 0.000002 100.335038 0.000163
0.112427 0.023571 0.000642 0.000002 144.009304 0.000262
0.113830 0.023178 0.000815 0.000002 336.524651 0.000732
0.114942 0.022060 0.000763 0.000002 173.909756 0.000357
0.115932 0.023106 0.000677 0.000002 581.356718 0.001166
0.117396 0.022995 0.000792 0.000002 1123.139074 0.002248
0.118849 0.023037 0.000662 0.000002 0.000000 0.000000
0.120286 0.023184 0.000684 0.000002 682.797417 0.001157
0.121630 0.023255 0.000662 0.000002 554.680295 0.001027
0.123634 0.023348 0.000815 0.000002 370.044847 0.000881
0.125375 0.024332 0.000711 0.000002 446.587970 0.000963
0.126750 0.024282 0.000665 0.000002 18.191257 0.000033
0.127952 0.024754 0.000627 0.000002 1098.098960 0.001785
0.129146 0.024284 0.000656 0.000002 77.275096 0.000137
0.130494 0.023905 0.000744 0.000002 375.577485 0.000724
0.132219 0.023333 0.000680 0.000002 374.217817 0.000683
0.133604 0.023102 0.000725 0.000002 781.514306 0.001584
0.135627 0.023068 0.000747 0.000002 702.324282 0.001381
0.137009 0.022751 0.000637 0.000002 0.000000 0.000000
0.138379 0.022417 0.000678 0.000002 1124.673046 0.002020
0.139558 0.023549 0.000816 0.000002 18.354019 0.000040
0.141460 0.022597 0.000609 0.000002 937.323131 0.001716
0.142645 0.023445 0.000849 0.000002 129.967775 0.000321
0.144003 0.021964 0.000769 0.000002 188.780513 0.000404
0.145469 0.022477 0.000705 0.000002 694.898176 0.001270
0.146830 0.022675 0.000671 0.000002 605.920277 0.001063
0.148447 0.022894 0.000651 0.000002 190.310013 0.000347
0.149875 0.023073 0.000789 0.000002 313.798729 0.000648
0.151324 0.022620 0.000730 0.000002 412.025833 0.000811
0.152866 0.022649 0.000810 0.000002 566.160395 0.001126
0.154255 0.022292 0.000624 0.000002 497.137050 0.000867
0.155610 0.022170 0.000692 0.000002 170.280364 0.000289
0.157033 0.021979 0.000731 0.000002 211.946917 0.000411
0.158888 0.021325 0.000749 0.000002 151.213394 0.000299
0.160299 0.021319 0.000629 0.000002 230.257723 0.000408
0.162313 0.021356 0.000691 0.000002 482.044758 0.000893
0.163696 0.021400 0.000673 0.000002 530.904355 0.000865
0.165005 0.021623 0.000654 0.000002 0.000000 0.000000
0.166576 0.022026 0.000688 0.000002 497.834254 0.001020
0.168005 0.021631 0.000795 0.000002 203.029812 0.000431
0.169622 0.021703 0.000725 0.000002 0.000000 0.000000
0.171451 0.022746 0.000655 0.000002 1068.585975 0.001825
0.173897 0.022361 0.000741 0.000002 230.117488 0.000492
0.177170 0.022791 0.000711 0.000002 621.405987 0.001151
0.176165 0.021942 0.000605 0.000002 184.701067 0.000331
0.178435 0.022264 0.000659 0.000002 346.953910 0.000590
0.180596 0.021932 0.000727 0.000002 279.784201 0.000584
0.183142 0.022175 0.000722 0.000002 154.125777 0.000298
0.184378 0.021916 0.000542 0.000002 423.082926 0.000703
0.185385 0.021128 0.000737 0.000002 403.122692 0.000829
0.186733 0.020586 0.000716 0.000002 160.814901 0.000325
0.189491 0.019611 0.000713 0.000002 31.367281 0.000066
0.190780 0.018832 0.000793 0.000002 702.322804 0.001334
0.192037 0.018226 0.000588 0.000002 223.749133 0.000414
0.193388 0.018329 0.000766 0.000002 537.419586 0.001083
0.195754 0.018212 0.000763 0.000002 596.469502 0.001276
0.196789 0.017220 0.000671 0.000002 208.783907 0.000423
0.200610 0.017050 0.000766 0.000002 51.240157 0.000103
0.204459 0.017243 0.000753 0.000002 15.558709 0.000033
0.206663 0.017124 0.000676 0.000002 88.814051 0.000166
0.210607 0.016478 0.000759 0.000002 98.519785 0.000196
0.212107 0.016275 0.000583 0.000002 32.710262 0.000052
0.213036 0.015307 0.000758 0.000002 0.000000 0.000000
0.216963 0.015236 0.000755 0.000002 109.159742 0.000204
0.219248 0.014031 0.000583 0.000002 1.046296 0.000002
0.222664 0.013882 0.000667 0.000002 0.000000 0.000000
0.223655 0.012908 0.000670 0.000002 249.789207 0.000501
0.227532 0.012239 0.000815 0.000002 0.000000 0.000000
0.230472 0.011609 0.000615 0.000002 291.763644 0.000519
0.235010 0.009586 0.000671 0.000002 40.393375 0.000070
0.238396 0.009065 0.000792 0.000002 299.946605 0.000675
0.238155 0.007696 0.000598 0.000002 0.000000 0.000000
0.242297 0.007414 0.000798 0.000002 332.313986 0.000702
0.249060 0.006283 0.000593 0.000002 112.146587 0.000188
0.246542 0.006880 0.000660 0.000002 7.071443 0.000013
0.254225 0.004677 0.000816 0.000002 595.181197 0.001272
0.262819 0.003093 0.000695 0.000002 95.150734 0.000179
0.260760 0.002260 0.000729 0.000002 1749.916216 0.003415
0.262672 0.000665 0.000664 0.000002 0.000000 0.000000
0.273634 0.001963 0.000783 0.000003 -2.566339 -0.000007
0.269424 0.000748 0.000748 0.000002 138.020953 0.000289
0.000716 0.025979 0.000716 0.000002 466.114504 0.000851
0.001968 0.025196 0.000727 0.000002 370.412013 0.000691
0.003318 0.024420 0.000743 0.000002 561.901283 0.001074
0.004647 0.023770 0.000736 0.000002 654.835808 0.001366
0.006105 0.024198 0.000783 0.000002 302.539071 0.000695
0.007886 0.024478 0.000785 0.000002 419.634323 0.000965
0.009298 0.024399 0.000629 0.000002 175.039286 0.000324
0.010730 0.024040 0.000739 0.000002 1066.127904 0.002057
0.012069 0.023277 0.000634 0.000002 66.532004 0.000121
0.013088 0.024030 0.000633 0.000002 689.413657 0.001128
0.014383 0.023835 0.000672 0.000002 159.238850 0.000259
0.015384 0.024867 0.000766 0.000002 0.000000 0.000000
0.016980 0.024950 0.000771 0.000002 632.704174 0.001377
0.018466 0.025298 0.000755 0.000002 270.314157 0.000518
0.021062 0.024495 0.000727 0.000002 744.511361 0.001470
0.022332 0.024762 0.000571 0.000002 376.644372 0.000665
0.023186 0.023848 0.000680 0.000002 28.318654 0.000052
0.024754 0.024401 0.000681 0.000002 174.690635 0.000311
0.026090 0.024692 0.000686 0.000002 416.513247 0.000760
0.027472 0.025144 0.000768 0.000002 783.235580 0.001531
0.029065 0.025492 0.000684 0.000002 135.693912 0.000253
0.030497 0.025846 0.000792 0.000002 732.440870 0.001430
0.031829 0.026078 0.000562 0.000002 33.892706 0.000058
0.033194 0.024985 0.000721 0.000002 12.878287 0.000026
0.034598 0.024717 0.000635 0.000002 730.721220 0.001355
0.035948 0.024676 0.000715 0.000002 680.743995 0.001274
0.038123 0.024834 0.000714 0.000002 1020.126288 0.002005
0.039516 0.024982 0.000687 0.000002 154.222439 0.000296
0.040448 0.023991 0.000674 0.000002 644.710330 0.001119
0.041774 0.024015 0.000652 0.000002 413.408440 0.000688
0.043102 0.023954 0.000677 0.000002 134.576423 0.000243
0.044535 0.023796 0.000765 0.000002 238.517131 0.000465
0.045767 0.024258 0.000551 0.000001 90.305655 0.000133
0.046869 0.023777 0.000643 0.000002 914.556787 0.001593
0.048127 0.023551 0.000636 0.000002 365.917593 0.000635
0.049438 0.023820 0.000702 0.000002 154.415405 0.000284
0.050862 0.024135 0.000757 0.000002 268.690458 0.000483
0.052156 0.024539 0.000598 0.000002 423.435292 0.000636
0.053453 0.024493 0.000699 0.000002 674.143664 0.001108
0.054828 0.024454 0.000678 0.000002 414.066869 0.000803
0.056259 0.024469 0.000754 0.000002 513.551520 0.001049
0.057809 0.024355 0.000677 0.000002 356.918027 0.000651
0.059196 0.024208 0.000718 0.000002 105.550154 0.000195
0.060634 0.024272 0.000710 0.000002 1075.845261 0.001806
0.061977 0.024294 0.000634 0.000002 5.421942 0.000008
0.063321 0.024432 0.000717 0.000002 689.657894 0.001238
0.065102 0.024003 0.000728 0.000002 623.930252 0.001164
0.066544 0.023963 0.000716 0.000002 1001.799085 0.001631
0.067786 0.024283 0.000567 0.000002 17.741026 0.000029
0.069258 0.024383 0.000632 0.000002 200.033426 0.000377
0.070637 0.024429 0.000748 0.000002 295.430773 0.000521
0.071982 0.024666 0.000618 0.000002 930.568584 0.001485
0.073064 0.023945 0.000682 0.000002 222.311566 0.000348
0.075259 0.023954 0.000701 0.000002 407.788456 0.000704
0.076558 0.024615 0.000757 0.000002 563.307320 0.001078
0.077949 0.025228 0.000764 0.000002 500.715695 0.000947
0.079148 0.024405 0.000691 0.000002 36.390893 0.000069
0.080193 0.025349 0.000717 0.000002 699.165843 0.001180
0.081564 0.024913 0.000678 0.000002 0.894759 0.000002
0.083024 0.024663 0.000803 0.000002 518.191070 0.001050
0.084526 0.024514 0.000706 0.000002 953.270611 0.001834
0.085558 0.023658 0.000635 0.000002 408.107311 0.000770
0.086856 0.023919 0.000689 0.000002 164.484987 0.000298
0.088145 0.024051 0.000606 0.000002 479.812500 0.000781
0.090537 0.024388 0.000764 0.000002 203.708923 0.000442
0.092153 0.024227 0.000860 0.000002 384.373689 0.000778
0.093530 0.024623 0.000547 0.000001 981.110829 0.001394
0.094667 0.024511 0.000597 0.000001 292.149303 0.000423
0.095871 0.024126 0.000667 0.000002 128.259443 0.000216
0.097306 0.024414 0.000796 0.000002 632.216897 0.001307
0.098867 0.024352 0.000767 0.000002 555.133480 0.001081
0.100285 0.024131 0.000669 0.000002 490.636875 0.000820
0.101687 0.024213 0.000697 0.000002 518.998528 0.000860
0.103138 0.024414 0.000768 0.000002 247.792004 0.000462
0.104589 0.024692 0.000710 0.000002 329.791032 0.000684
0.106196 0.024494 0.000771 0.000002 293.544271 0.000653
0.107686 0.024417 0.000720 0.000002 190.888571 0.000366
0.109213 0.024241 0.000817 0.000002 1235.103335 0.002542
0.110693 0.024082 0.000672 0.000002 45.152401 0.000086
0.111869 0.024798 0.000706 0.000002 158.674382 0.000287
0.113289 0.024560 0.000670 0.000002 103.137995 0.000193
0.115023 0.024299 0.000823 0.000002 584.023777 0.001378
0.116647 0.024404 0.000805 0.000002 855.422016 0.001812
0.118168 0.024295 0.000720 0.000002 269.766861 0.000507
0.119554 0.024319 0.000666 0.000002 181.096037 0.000290
0.120917 0.024415 0.000700 0.000002 1005.704336 0.001745
0.122461 0.024456 0.000799 0.000002 209.606365 0.000466
0.124005 0.024884 0.000766 0.000002 267.330055 0.000571
0.126098 0.025675 0.000815 0.000002 373.287912 0.000820
0.127572 0.026025 0.000700 0.000002 692.950486 0.001268
0.128951 0.025619 0.000694 0.000002 112.671329 0.000197
0.130571 0.025383 0.000737 0.000002 439.870218 0.000866
0.131729 0.024588 0.000668 0.000002 288.755227 0.000528
0.133113 0.024457 0.000717 0.000002 527.233221 0.000990
0.134618 0.024244 0.000803 0.000002 542.802373 0.001162
0.136468 0.024310 0.000753 0.000002 460.248608 0.000980
0.137959 0.023844 0.000810 0.000002 968.910717 0.001941
0.140301 0.024942 0.000752 0.000002 834.970885 0.001567
0.140990 0.023744 0.000630 0.000002 330.370077 0.000620
0.141847 0.024882 0.000795 0.000002 397.293600 0.000812
0.144341 0.023548 0.000850 0.000002 579.602811 0.001364
0.146007 0.023802 0.000725 0.000002 239.280478 0.000449
0.147498 0.023956 0.000774 0.000002 764.278177 0.001421
0.148953 0.024258 0.000713 0.000002 173.972503 0.000342
0.150578 0.024500 0.000803 0.000002 169.232384 0.000397
0.151993 0.023916 0.000729 0.000002 626.667549 0.001281
0.153417 0.024058 0.000703 0.000002 164.619491 0.000333
0.154973 0.023474 0.000759 0.000002 576.134998 0.001108
0.156444 0.023274 0.000691 0.000002 147.621106 0.000270
0.158298 0.022648 0.000700 0.000002 217.486451 0.000411
0.159720 0.022511 0.000697 0.000002 64.352760 0.000114
0.161244 0.022338 0.000761 0.000002 624.202657 0.001185
0.162786 0.022598 0.000638 0.000002 96.027040 0.000158
0.164160 0.022733 0.000739 0.000002 436.003340 0.000745
0.165535 0.022853 0.000642 0.000002 115.560751 0.000189
0.167364 0.023283 0.000796 0.000002 606.197707 0.001216
0.168809 0.022892 0.000701 0.000002 22.132203 0.000044
0.170162 0.022975 0.000655 0.000002 147.915082 0.000280
0.172746 0.023329 0.000763 0.000002 356.593372 0.000691
0.175648 0.023225 0.000778 0.000002 43.449514 0.000097
0.178325 0.023625 0.000706 0.000002 296.735188 0.000547
0.179606 0.022979 0.000711 0.000002 0.000000 0.000000
0.181796 0.022851 0.000785 0.000002 473.542161 0.000976
0.184319 0.023261 0.000805 0.000002 177.745356 0.000352
0.185891 0.022622 0.000841 0.000002 155.867104 0.000357
0.187330 0.021931 0.000756 0.000002 197.292345 0.000473
0.188573 0.021065 0.000759 0.000002 958.299172 0.002080
0.190997 0.020188 0.000580 0.000002 619.356643 0.001045
0.192147 0.019546 0.000737 0.000002 179.506374 0.000329
0.193524 0.019728 0.000640 0.000002 616.476101 0.001176
0.194752 0.019247 0.000679 0.000002 55.475606 0.000119
0.197905 0.018197 0.000813 0.000002 434.964761 0.000969
0.199211 0.017456 0.000689 0.000002 117.779889 0.000243
0.202390 0.017652 0.000757 0.000002 268.608614 0.000504
0.205641 0.017842 0.000572 0.000002 190.635278 0.000332
0.207972 0.017850 0.000744 0.000002 9.612998 0.000018
0.209255 0.017206 0.000692 0.000002 26.546141 0.000051
0.213322 0.016772 0.000714 0.000002 0.000000 0.000000
0.214569 0.016422 0.000581 0.000002 0.000000 0.000000
0.215643 0.015774 0.000670 0.000002 0.000000 0.000000
0.218187 0.014607 0.000622 0.000002 0.000000 0.000000
0.220332 0.013337 0.000704 0.000002 93.093449 0.000166
0.223934 0.014187 0.000639 0.000002 46.086119 0.000077
0.225291 0.013806 0.000770 0.000002 0.318090 0.000001
0.229194 0.012318 0.000847 0.000002 0.000000 0.000000
0.233612 0.009639 0.000728 0.000002 0.000000 0.000000
0.237340 0.010109 0.000693 0.000002 62.942128 0.000114
0.240866 0.007692 0.000656 0.000002 0.000000 0.000000
0.245196 0.006726 0.000695 0.000002 212.098054 0.000384
0.251784 0.006920 0.000694 0.000002 0.000000 0.000000
0.252647 0.004501 0.000772 0.000002 0.000000 0.000000
0.261538 0.003355 0.000615 0.000002 1968.934424 0.003165
0.259534 0.002783 0.000605 0.000002 0.000000 0.000000
0.265591 0.002056 0.000785 0.000002 1445.904686 0.003305
0.269276 0.002078 0.000590 0.000002 83.587070 0.000148
0.276802 0.002210 0.000733 0.000002 3.031250 0.000007
0.278262 0.002042 0.000737 0.000002 0.000000 0.000000
0.283504 0.001433 0.000715 0.000004 0.000000 0.000000
0.000598 0.027288 0.000598 0.000002 318.699952 0.000534
0.001981 0.026630 0.000707 0.000002 812.507254 0.001577
0.003266 0.025922 0.000760 0.000002 203.238018 0.000385
0.004529 0.025197 0.000696 0.000002 602.941459 0.001106
0.005815 0.025602 0.000652 0.000002 409.806468 0.000740
0.007179 0.025815 0.000728 0.000002 260.663676 0.000524
0.008749 0.025722 0.000729 0.000002 256.650441 0.000487
0.010211 0.025445 0.000759 0.000002 917.970405 0.001845
0.011980 0.024939 0.000801 0.000002 518.412614 0.001160
0.013861 0.025024 0.000627 0.000002 562.658115 0.001003
0.014592 0.026213 0.000769 0.000002 507.864896 0.001015
0.016112 0.026200 0.000752 0.000002 666.134853 0.001316
0.017535 0.026397 0.000685 0.000002 103.978258 0.000178
0.018765 0.026577 0.000558 0.000002 477.148441 0.000739
0.020075 0.026093 0.000840 0.000002 571.639395 0.001191
0.021613 0.025833 0.000720 0.000002 537.317420 0.000994
0.023577 0.025235 0.000761 0.000002 318.613248 0.000627
0.025162 0.025719 0.000698 0.000002 280.175315 0.000513
0.026459 0.026175 0.000677 0.000002 68.927533 0.000131
0.028081 0.026527 0.000745 0.000002 618.189000 0.001211
0.029471 0.026933 0.000704 0.000002 453.312154 0.000851
0.031108 0.027204 0.000699 0.000002 225.418104 0.000419
0.032948 0.026383 0.000598 0.000002 403.746172 0.000623
0.034202 0.026004 0.000712 0.000002 640.605119 0.001044
0.035563 0.025985 0.000650 0.000002 684.692268 0.001113
0.036983 0.025802 0.000782 0.000002 18.301915 0.000037
0.038428 0.026243 0.000728 0.000002 918.311027 0.001760
0.039927 0.026389 0.000778 0.000002 310.261147 0.000647
0.041037 0.025309 0.000771 0.000002 510.822907 0.001018
0.042465 0.025139 0.000667 0.000002 443.046094 0.000778
0.043869 0.025142 0.000737 0.000002 289.024610 0.000544
0.045242 0.025339 0.000650 0.000002 0.348458 0.000001
0.046744 0.025268 0.000854 0.000002 866.918796 0.001892
0.048433 0.025009 0.000855 0.000002 276.747279 0.000610
0.049935 0.025207 0.000661 0.000002 252.693341 0.000464
0.051325 0.025444 0.000632 0.000002 457.410924 0.000752
0.052743 0.025652 0.000660 0.000002 240.483023 0.000386
0.054201 0.025781 0.000791 0.000002 650.398182 0.001257
0.055787 0.026056 0.000819 0.000002 220.877410 0.000467
0.057186 0.025548 0.000669 0.000002 507.117312 0.000950
0.058593 0.025534 0.000739 0.000002 428.481160 0.000783
0.060022 0.025533 0.000692 0.000002 874.395002 0.001521
0.061362 0.025423 0.000652 0.000002 11.483564 0.000019
0.062637 0.025598 0.000635 0.000002 682.675361 0.001214
0.064461 0.025288 0.000708 0.000002 645.163036 0.001201
0.065783 0.025147 0.000604 0.000002 0.032153 0.000000
0.067032 0.025235 0.000648 0.000002 946.408631 0.001591
0.068462 0.025609 0.000830 0.000002 278.864336 0.000541
0.069967 0.025687 0.000678 0.000002 247.663365 0.000427
0.071308 0.025757 0.000665 0.000002 516.858947 0.000890
0.073094 0.025281 0.000654 0.000002 911.205552 0.001522
0.074148 0.024616 0.000593 0.000002 0.000000 0.000000
0.075264 0.025381 0.000727 0.000002 187.318037 0.000361
0.076729 0.025984 0.000623 0.000002 309.091306 0.000583
0.077857 0.026703 0.000715 0.000002 958.025202 0.001754
0.079057 0.026084 0.000637 0.000002 10.459020 0.000018
0.080105 0.026589 0.000527 0.000001 367.057112 0.000494
0.081271 0.026249 0.000688 0.000002 343.954836 0.000559
0.082657 0.026124 0.000704 0.000002 247.333865 0.000438
0.083985 0.025778 0.000670 0.000002 792.489782 0.001454
0.085879 0.024980 0.000725 0.000002 374.493564 0.000734
0.087365 0.025316 0.000798 0.000002 129.876959 0.000273
0.088908 0.025175 0.000753 0.000002 199.248632 0.000417
0.090200 0.025795 0.000682 0.000002 593.979994 0.001063
0.091592 0.025697 0.000714 0.000002 412.986775 0.000777
0.092828 0.025459 0.000545 0.000001 742.863025 0.001110
0.094130 0.025771 0.000749 0.000002 336.591159 0.000604
0.095558 0.025469 0.000712 0.000002 128.811151 0.000235
0.096918 0.025863 0.000705 0.000002 924.678599 0.001713
0.098292 0.025681 0.000682 0.000002 393.459658 0.000682
0.099663 0.025593 0.000692 0.000002 68.571446 0.000120
0.100898 0.025234 0.000594 0.000002 1185.780924 0.001844
0.102180 0.025566 0.000731 0.000002 219.903028 0.000407
0.103612 0.025774 0.000673 0.000002 44.561002 0.000081
0.105019 0.026112 0.000774 0.000002 201.094932 0.000415
0.107052 0.025667 0.000681 0.000002 298.658807 0.000567
0.108506 0.025664 0.000773 0.000002 942.254381 0.001871
0.110098 0.025617 0.000820 0.000002 129.462874 0.000291
0.111506 0.026137 0.000682 0.000002 696.328083 0.001292
0.112800 0.025794 0.000658 0.000002 1.684680 0.000003
0.114261 0.025736 0.000805 0.000002 512.901456 0.001128
0.115882 0.025835 0.000819 0.000002 574.567991 0.001316
0.117423 0.025723 0.000726 0.000002 153.531634 0.000320
0.118893 0.025470 0.000661 0.000002 545.546157 0.000934
0.120141 0.025441 0.000587 0.000002 447.261650 0.000683
0.121550 0.025826 0.000847 0.000002 674.049837 0.001452
0.123102 0.026068 0.000724 0.000002 300.806081 0.000608
0.124657 0.026230 0.000730 0.000002 11.197690 0.000025
0.126648 0.027128 0.000739 0.000002 835.469239 0.001717
0.128552 0.026877 0.000598 0.000002 319.173428 0.000491
0.129899 0.026719 0.000759 0.000002 388.203069 0.000701
0.131251 0.026507 0.000576 0.000002 5.892662 0.000010
0.132496 0.025867 0.000823 0.000002 816.219932 0.001706
0.134028 0.025652 0.000724 0.000002 268.344342 0.000528
0.135542 0.025427 0.000699 0.000002 594.833187 0.001196
0.137545 0.025322 0.000726 0.000002 1029.615635 0.002083
0.138889 0.024982 0.000660 0.000002 0.000000 0.000000
0.139562 0.026260 0.000759 0.000002 392.250061 0.000745
0.141082 0.026139 0.000677 0.000002 28.002311 0.000049
0.142575 0.026214 0.000724 0.000002 707.587041 0.001440
0.143453 0.024954 0.000813 0.000002 0.000000 0.000000
0.145089 0.025007 0.000790 0.000002 511.930478 0.001086
0.146592 0.025003 0.000611 0.000002 138.503028 0.000234
0.147989 0.025437 0.000787 0.000002 522.566806 0.000986
0.149502 0.025596 0.000734 0.000002 342.059803 0.000672
0.152051 0.025421 0.000778 0.000002 376.716078 0.000777
0.153360 0.025369 0.000531 0.000001 86.308158 0.000126
0.154585 0.024947 0.000765 0.000002 341.243142 0.000599
0.155925 0.024503 0.000643 0.000002 397.228940 0.000697
0.157688 0.023921 0.000712 0.000002 67.436583 0.000127
0.159127 0.023783 0.000706 0.000002 244.440677 0.000441
0.160567 0.023675 0.000738 0.000002 644.337942 0.001181
0.161939 0.023550 0.000636 0.000002 0.000000 0.000000
0.163266 0.023779 0.000637 0.000002 136.389508 0.000246
0.164840 0.024038 0.000733 0.000002 415.749346 0.000733
0.166148 0.023928 0.000581 0.000002 173.410353 0.000261
0.168536 0.024365 0.000797 0.000002 32.066282 0.000063
0.170131 0.024429 0.000800 0.000002 52.124796 0.000107
0.171535 0.024038 0.000641 0.000002 1223.139764 0.002141
0.174212 0.023917 0.000816 0.000002 168.242784 0.000381
0.176815 0.024195 0.000737 0.000002 396.387175 0.000793
0.179500 0.024450 0.000730 0.000002 227.260240 0.000413
0.180709 0.023786 0.000649 0.000002 45.899394 0.000088
0.182917 0.023848 0.000716 0.000002 368.537312 0.000768
0.184360 0.024723 0.000657 0.000002 0.000000 0.000000
0.185538 0.024095 0.000673 0.000002 255.227902 0.000468
0.187296 0.023504 0.000818 0.000002 95.886278 0.000219
0.189285 0.022373 0.000731 0.000002 963.237993 0.002219
0.190070 0.021128 0.000740 0.000002 2.903654 0.000005
0.192769 0.020932 0.000782 0.000002 456.237996 0.000972
0.194929 0.020599 0.000684 0.000002 0.000000 0.000000
0.196802 0.019289 0.000740 0.000002 216.609190 0.000489
0.199852 0.018678 0.000692 0.000002 73.224492 0.000154
0.201165 0.018363 0.000660 0.000002 159.446357 0.000285
0.203620 0.018427 0.000698 0.000002 3.322116 0.000007
0.206705 0.018533 0.000696 0.000002 0.000000 0.000000
0.210483 0.018006 0.000773 0.000002 90.248199 0.000175
0.211839 0.017502 0.000673 0.000002 0.000000 0.000000
0.215610 0.017101 0.000657 0.000001 237.244184 0.000356
0.216665 0.016499 0.000543 0.000001 0.000000 0.000000
0.218562 0.015761 0.000590 0.000002 34.305102 0.000063
0.221355 0.014312 0.000710 0.000002 100.948979 0.000187
0.224829 0.015290 0.000782 0.000002 0.000000 0.000000
0.226199 0.014950 0.000630 0.000002 42.395692 0.000078
0.228396 0.013711 0.000757 0.000002 0.000000 0.000000
0.232204 0.010103 0.000752 0.000002 0.000000 0.000000
0.235975 0.010663 0.000762 0.000002 24.944032 0.000047
0.240949 0.010056 0.000731 0.000002 27.211846 0.000054
0.241941 0.008936 0.000765 0.000002 417.552076 0.000869
0.245802 0.007969 0.000633 0.000002 0.000000 0.000000
0.249818 0.007346 0.000602 0.000002 1709.230095 0.002999
0.253314 0.005812 0.000628 0.000002 0.000000 0.000000
0.260334 0.003725 0.000625 0.000002 0.000000 0.000000
0.264301 0.002963 0.000796 0.000002 2338.755460 0.005151
0.274778 0.003765 0.000809 0.000002 34.491003 0.000086
0.267939 0.000737 0.000737 0.000002 0.000000 0.000000
0.275235 0.002187 0.000834 0.000002 138.478371 0.000335
0.281914 0.000735 0.000727 0.000003 0.000000 0.000000
0.000611 0.028497 0.000611 0.000002 371.826523 0.000627
0.001983 0.028143 0.000807 0.000002 550.945086 0.001104
0.003383 0.027434 0.000756 0.000002 0.000000 0.000000
0.004548 0.026570 0.000677 0.000002 675.238148 0.001247
0.006044 0.026871 0.000637 0.000002 278.424347 0.000449
0.007237 0.027124 0.000583 0.000001 349.996760 0.000523
0.008459 0.027059 0.000641 0.000002 399.783244 0.000659
0.009763 0.026818 0.000686 0.000002 469.996360 0.000862
0.011413 0.026432 0.000796 0.000002 715.584042 0.001569
0.013007 0.026189 0.000817 0.000002 20.239918 0.000043
0.013851 0.027513 0.000728 0.000002 0.035450 0.000000
0.015381 0.027572 0.000803 0.000002 1079.247938 0.002061
0.016827 0.027521 0.000644 0.000002 9.291690 0.000016
0.018175 0.027707 0.000717 0.000002 442.187363 0.000771
0.019587 0.027556 0.000703 0.000002 370.917463 0.000672
0.021170 0.027208 0.000724 0.000002 174.360599 0.000354
0.022687 0.026661 0.000637 0.000002 609.453433 0.001240
0.024068 0.026658 0.000745 0.000002 484.734944 0.000954
0.025454 0.027226 0.000753 0.000002 83.727405 0.000159
0.026950 0.027544 0.000777 0.000002 613.779257 0.001210
0.028459 0.027959 0.000737 0.000002 207.585310 0.000405
0.030122 0.028108 0.000640 0.000002 750.374634 0.001410
0.032478 0.027631 0.000736 0.000002 522.537888 0.000993
0.033838 0.027325 0.000659 0.000002 586.883749 0.000976
0.035064 0.027114 0.000585 0.000002 405.931791 0.000630
0.036278 0.027048 0.000631 0.000002 126.105499 0.000200
0.037543 0.027315 0.000662 0.000002 67.131983 0.000114
0.038892 0.027612 0.000719 0.000002 841.434797 0.001565
0.040360 0.027880 0.000774 0.000002 773.351006 0.001510
0.041523 0.026809 0.000807 0.000002 281.012410 0.000631
0.042937 0.026388 0.000669 0.000002 212.261287 0.000419
0.044437 0.026624 0.000850 0.000002 222.904859 0.000485
0.046085 0.026793 0.000808 0.000002 744.544741 0.001652
0.047669 0.026623 0.000786 0.000002 52.236684 0.000114
0.049041 0.026346 0.000614 0.000002 134.612803 0.000239
0.050446 0.026589 0.000812 0.000002 800.811046 0.001613
0.051916 0.026683 0.000662 0.000002 128.969540 0.000237
0.053241 0.026895 0.000680 0.000002 569.034759 0.001007
0.054764 0.027096 0.000640 0.000002 297.288137 0.000587
0.056505 0.027264 0.000587 0.000002 71.568429 0.000134
0.057828 0.026864 0.000796 0.000002 662.247022 0.001254
0.059356 0.026793 0.000734 0.000002 503.703575 0.000927
0.060748 0.026677 0.000664 0.000002 422.118959 0.000782
0.062172 0.026938 0.000784 0.000002 610.516940 0.001197
0.063679 0.026546 0.000774 0.000002 557.743120 0.001055
0.065306 0.026407 0.000694 0.000002 156.268998 0.000292
0.066758 0.026631 0.000775 0.000002 608.256756 0.001192
0.068039 0.026986 0.000555 0.000002 99.433743 0.000160
0.069297 0.026898 0.000706 0.000002 496.883377 0.000797
0.070616 0.026834 0.000615 0.000002 384.210110 0.000599
0.072488 0.026561 0.000763 0.000002 201.653506 0.000425
0.074083 0.026324 0.000785 0.000002 551.231900 0.001204
0.075598 0.026913 0.000842 0.000002 498.442684 0.001056
0.076898 0.027742 0.000700 0.000002 304.146404 0.000588
0.078283 0.028078 0.000726 0.000002 831.913785 0.001577
0.079568 0.027622 0.000638 0.000002 130.815940 0.000236
0.080917 0.027602 0.000711 0.000002 262.792634 0.000440
0.082205 0.027349 0.000602 0.000002 0.000000 0.000000
0.083664 0.027129 0.000719 0.000002 686.775215 0.001228
0.085007 0.026678 0.000693 0.000002 610.561664 0.001125
0.086294 0.026293 0.000651 0.000002 283.250785 0.000494
0.087537 0.027006 0.000782 0.000002 245.210428 0.000535
0.089057 0.026691 0.000771 0.000002 11.110014 0.000023
0.090369 0.027055 0.000590 0.000001 543.911508 0.000811
0.091596 0.027048 0.000637 0.000002 484.082602 0.000828
0.092979 0.026769 0.000774 0.000002 668.522284 0.001358
0.095131 0.026803 0.000689 0.000002 81.635277 0.000154
0.096445 0.027152 0.000670 0.000002 813.719114 0.001330
0.097762 0.026941 0.000664 0.000002 1.437190 0.000002
0.099039 0.026755 0.000627 0.000002 401.231994 0.000728
0.100803 0.026596 0.000772 0.000002 784.592269 0.001681
0.101583 0.027930 0.000774 0.000002 280.357000 0.000532
0.102576 0.026896 0.000657 0.000002 183.572348 0.000339
0.103928 0.027124 0.000714 0.000002 116.347546 0.000199
0.106287 0.026752 0.000648 0.000002 431.135959 0.000729
0.107687 0.026969 0.000768 0.000002 665.143777 0.001270
0.109251 0.026875 0.000648 0.000002 54.928355 0.000106
0.110617 0.027303 0.000784 0.000002 96.131987 0.000189
0.112124 0.027402 0.000726 0.000002 560.221402 0.001101
0.113605 0.027171 0.000773 0.000002 387.868654 0.000815
0.115142 0.027237 0.000766 0.000002 26.347356 0.000057
0.116824 0.027168 0.000813 0.000002 611.805394 0.001437
0.118449 0.026898 0.000834 0.000002 728.541678 0.001540
0.119849 0.026591 0.000599 0.000002 175.750179 0.000294
0.120974 0.027287 0.000724 0.000002 713.635889 0.001331
0.122366 0.027250 0.000668 0.000002 0.484875 0.000001
0.123747 0.027356 0.000717 0.000002 229.354954 0.000461
0.125230 0.027813 0.000835 0.000002 227.596715 0.000555
0.127796 0.027786 0.000584 0.000002 69.366652 0.000108
0.129202 0.028054 0.000747 0.000002 411.829519 0.000744
0.130923 0.027745 0.000691 0.000002 291.111778 0.000518
0.132389 0.027484 0.000798 0.000002 898.772078 0.001810
0.133803 0.027041 0.000684 0.000002 150.712519 0.000288
0.135112 0.026721 0.000665 0.000002 412.939450 0.000760
0.136584 0.026531 0.000819 0.000002 526.078277 0.001087
0.138128 0.026655 0.000729 0.000002 545.277645 0.001080
0.139148 0.027667 0.000709 0.000002 744.694460 0.001433
0.140488 0.027347 0.000669 0.000002 1.586959 0.000003
0.141743 0.027232 0.000591 0.000002 227.609902 0.000381
0.143386 0.027386 0.000701 0.000002 544.966486 0.001147
0.144691 0.026581 0.000833 0.000002 296.581026 0.000685
0.145996 0.026035 0.000581 0.000001 127.433174 0.000187
0.147085 0.026485 0.000597 0.000001 357.904835 0.000525
0.148241 0.026803 0.000602 0.000002 436.037206 0.000748
0.149576 0.026944 0.000616 0.000002 398.384759 0.000687
0.150807 0.026325 0.000761 0.000002 340.575345 0.000698
0.152981 0.026428 0.000593 0.000002 304.963896 0.000459
0.154159 0.026243 0.000600 0.000002 25.704493 0.000039
0.155741 0.025813 0.000680 0.000002 461.386892 0.000809
0.157104 0.025285 0.000772 0.000002 184.983298 0.000344
0.158525 0.025024 0.000673 0.000002 218.501539 0.000404
0.160007 0.025118 0.000811 0.000002 441.650118 0.000875
0.161460 0.024774 0.000678 0.000002 124.702865 0.000220
0.162846 0.025096 0.000746 0.000002 71.757676 0.000142
0.164238 0.025295 0.000661 0.000002 354.358138 0.000645
0.165738 0.025077 0.000640 0.000002 129.160840 0.000204
0.167112 0.024702 0.000645 0.000002 487.819928 0.000772
0.169286 0.025562 0.000614 0.000002 19.192058 0.000033
0.171309 0.025360 0.000701 0.000002 822.211797 0.001544
0.172691 0.024859 0.000767 0.000002 153.217720 0.000311
0.175476 0.024835 0.000745 0.000002 0.000000 0.000000
0.178137 0.025099 0.000780 0.000002 304.283878 0.000611
0.180461 0.025369 0.000600 0.000002 103.236216 0.000183
0.181716 0.024798 0.000778 0.000002 0.000000 0.000000
0.183116 0.025236 0.000686 0.000002 311.554749 0.000576
0.185520 0.025514 0.000747 0.000002 537.722469 0.000942
0.186626 0.024751 0.000598 0.000002 67.843065 0.000107
0.188850 0.023804 0.000765 0.000002 846.393238 0.001783
0.190723 0.022446 0.000710 0.000002 1120.808478 0.002230
0.191419 0.021312 0.000621 0.000002 0.000000 0.000000
0.194096 0.021898 0.000859 0.000002 140.639426 0.000311
0.197700 0.020439 0.000718 0.000002 0.000000 0.000000
0.198715 0.019462 0.000690 0.000002 354.788292 0.000694
0.201142 0.019713 0.000690 0.000002 159.058202 0.000318
0.202398 0.019111 0.000703 0.000002 188.096470 0.000354
0.205119 0.019025 0.000721 0.000002 217.355982 0.000421
0.209178 0.018669 0.000690 0.000002 0.000000 0.000000
0.211811 0.018877 0.000702 0.000002 0.000000 0.000000
0.213020 0.018110 0.000653 0.000002 0.000000 0.000000
0.214392 0.017801 0.000748 0.000002 80.826928 0.000144
0.219526 0.016736 0.000781 0.000002 0.000000 0.000000
0.220072 0.015200 0.000846 0.000002 0.000000 0.000000
0.223119 0.015215 0.000673 0.000002 -0.091623 -0.000000
0.227598 0.014997 0.000717 0.000002 0.000000 0.000000
0.226844 0.013688 0.000787 0.000002 0.000000 0.000000
0.231952 0.011523 0.000690 0.000002 0.000000 0.000000
0.234424 0.010825 0.000700 0.000002 87.316745 0.000163
0.239520 0.010044 0.000698 0.000002 0.000000 0.000000
0.243341 0.008868 0.000635 0.000002 0.000000 0.000000
0.244402 0.007952 0.000767 0.000002 822.019522 0.001545
0.252445 0.008168 0.000697 0.000002 0.070677 0.000000
0.253084 0.007039 0.000598 0.000002 0.000000 0.000000
0.258824 0.005921 0.000686 0.000002 1.446198 0.000003
0.265703 0.003716 0.000765 0.000002 -0.120947 -0.000000
0.268172 0.002697 0.000675 0.000002 171.741827 0.000311
0.283157 0.005520 0.000620 0.000001 0.000000 0.000000
0.280673 0.002872 0.000624 0.000002 0.000000 0.000000
0.282064 0.002331 0.000844 0.000003 0.000000 0.000000
0.281983 0.006259 0.000763 0.000000 0.000000 0.000000
0.000716 0.029819 0.000716 0.000002 172.079098 0.000338
0.003260 0.028876 0.000665 0.000002 46.183458 0.000084
0.004585 0.029170 0.000692 0.000002 1787.013088 0.003266
0.005104 0.027855 0.000724 0.000002 11.956738 0.000024
0.006468 0.028105 0.000664 0.000002 421.372152 0.000753
0.007886 0.028355 0.000776 0.000002 344.795757 0.000633
0.009309 0.028096 0.000670 0.000002 0.000000 0.000000
0.010776 0.027855 0.000764 0.000002 1098.124328 0.002207
0.012389 0.027615 0.000738 0.000002 70.860919 0.000146
0.013215 0.028853 0.000751 0.000002 8.180825 0.000015
0.014631 0.028833 0.000666 0.000002 994.661496 0.001838
0.016094 0.028716 0.000545 0.000002 57.663016 0.000101
0.017394 0.028989 0.000784 0.000002 173.681997 0.000350
0.019033 0.028919 0.000769 0.000002 396.780937 0.000813
0.020514 0.028564 0.000667 0.000002 116.241227 0.000210
0.021876 0.028445 0.000701 0.000002 302.560801 0.000551
0.023266 0.027949 0.000775 0.000002 928.595873 0.001808
0.024626 0.028351 0.000644 0.000002 34.545871 0.000060
0.025933 0.028597 0.000686 0.000002 22.979559 0.000042
0.027400 0.028998 0.000746 0.000002 349.352792 0.000670
0.028756 0.029309 0.000646 0.000002 203.283670 0.000384
0.030113 0.029468 0.000721 0.000002 934.814493 0.001736
0.031462 0.028777 0.000796 0.000002 244.676577 0.000510
0.033512 0.028684 0.000739 0.000002 436.594981 0.000869
0.035078 0.028495 0.000796 0.000002 259.785968 0.000504
0.036557 0.028331 0.000681 0.000002 54.614393 0.000096
0.037904 0.028623 0.000695 0.000002 131.995712 0.000237
0.039332 0.029004 0.000741 0.000002 540.184717 0.000994
0.040627 0.029196 0.000569 0.000002 413.264801 0.000656
0.041804 0.028327 0.000737 0.000002 276.772840 0.000567
0.043249 0.027818 0.000795 0.000002 91.796145 0.000200
0.045170 0.027972 0.000685 0.000002 552.608867 0.001057
0.046527 0.028232 0.000698 0.000002 431.127029 0.000787
0.047838 0.028027 0.000629 0.000002 56.436152 0.000100
0.049046 0.027608 0.000649 0.000002 19.940043 0.000037
0.050330 0.028135 0.000739 0.000002 494.723765 0.001095
0.052374 0.027952 0.000687 0.000002 402.999809 0.000816
0.053872 0.028287 0.000848 0.000002 361.914947 0.000742
0.055568 0.028326 0.000829 0.000002 163.198051 0.000343
0.057337 0.028239 0.000665 0.000002 376.014722 0.000675
0.058707 0.028056 0.000686 0.000002 560.295275 0.000964
0.060233 0.028016 0.000771 0.000002 418.178167 0.000786
0.061692 0.028375 0.000731 0.000002 458.584739 0.000960
0.063218 0.027882 0.000625 0.000002 167.283088 0.000305
0.064429 0.027696 0.000600 0.000002 573.176954 0.000936
0.065759 0.027758 0.000732 0.000002 602.918581 0.001065
0.067284 0.028150 0.000833 0.000002 182.666220 0.000362
0.068645 0.027962 0.000542 0.000002 542.503229 0.000881
0.070110 0.028071 0.000722 0.000002 0.000000 0.000000
0.071445 0.027723 0.000601 0.000002 395.250893 0.000692
0.072770 0.028066 0.000768 0.000002 309.263972 0.000647
0.074296 0.027864 0.000771 0.000002 314.543580 0.000707
0.075669 0.028492 0.000739 0.000002 758.709502 0.001571
0.077263 0.029151 0.000755 0.000002 63.925052 0.000128
0.078765 0.029454 0.000732 0.000002 908.234342 0.001841
0.080178 0.028906 0.000784 0.000002 0.960079 0.000002
0.081714 0.028830 0.000754 0.000002 224.677744 0.000434
0.083142 0.028468 0.000719 0.000002 315.543611 0.000606
0.084764 0.028098 0.000748 0.000002 773.447328 0.001485
0.086048 0.027563 0.000643 0.000002 55.010798 0.000098
0.086945 0.028604 0.000732 0.000002 67.170206 0.000127
0.088338 0.028257 0.000703 0.000002 299.234042 0.000581
0.089643 0.028026 0.000623 0.000002 171.729958 0.000288
0.090940 0.028196 0.000685 0.000002 818.318588 0.001459
0.092467 0.028305 0.000846 0.000002 263.900032 0.000563
0.094098 0.027877 0.000801 0.000002 387.729901 0.000855
0.095546 0.028150 0.000673 0.000002 570.354232 0.000980
0.097104 0.028182 0.000553 0.000002 290.323284 0.000479
0.098422 0.028392 0.000782 0.000002 237.959049 0.000493
0.099907 0.027876 0.000791 0.000002 546.606328 0.001154
0.100723 0.029012 0.000608 0.000002 1035.689693 0.001762
0.103003 0.028143 0.000662 0.000002 339.804479 0.000585
0.104340 0.028517 0.000726 0.000002 254.910697 0.000447
0.105246 0.027502 0.000635 0.000002 0.000000 0.000000
0.106701 0.027966 0.000635 0.000002 903.474310 0.001714
0.108649 0.028101 0.000718 0.000002 164.955192 0.000321
0.109920 0.028524 0.000622 0.000002 85.169562 0.000149
0.111343 0.028645 0.000742 0.000002 404.031559 0.000736
0.112825 0.028690 0.000740 0.000002 135.070777 0.000275
0.114234 0.028484 0.000684 0.000002 389.290463 0.000722
0.115531 0.028562 0.000616 0.000002 1.477850 0.000003
0.116828 0.028666 0.000686 0.000002 646.942302 0.001231
0.118284 0.028503 0.000779 0.000002 750.047769 0.001631
0.119662 0.027902 0.000725 0.000002 0.000000 0.000000
0.121736 0.028397 0.000623 0.000002 640.990952 0.001101
0.123104 0.028709 0.000781 0.000002 176.976278 0.000357
0.124544 0.029252 0.000759 0.000002 253.626196 0.000546
0.126737 0.028638 0.000774 0.000002 544.098948 0.001066
0.128126 0.028984 0.000658 0.000002 41.179415 0.000063
0.129336 0.029424 0.000630 0.000001 842.023941 0.001220
0.130421 0.028905 0.000573 0.000002 0.645818 0.000001
0.131785 0.028955 0.000793 0.000002 670.849692 0.001349
0.133221 0.028684 0.000663 0.000002 58.363386 0.000105
0.134445 0.028210 0.000649 0.000002 95.288873 0.000169
0.135860 0.027964 0.000787 0.000002 958.526577 0.001889
0.137342 0.027849 0.000700 0.000002 151.347810 0.000301
0.138356 0.028940 0.000790 0.000002 275.792722 0.000567
0.139952 0.028877 0.000744 0.000002 668.317057 0.001345
0.141305 0.028426 0.000682 0.000002 7.742168 0.000015
0.142704 0.028650 0.000735 0.000002 361.802953 0.000748
0.144649 0.028232 0.000820 0.000002 264.246713 0.000564
0.145988 0.027237 0.000621 0.000002 22.542683 0.000036
0.147154 0.027722 0.000641 0.000002 319.093633 0.000531
0.148758 0.028157 0.000848 0.000002 376.587475 0.000866
0.150604 0.027784 0.000711 0.000002 362.670618 0.000666
0.151971 0.027297 0.000740 0.000002 0.000000 0.000000
0.153728 0.027501 0.000715 0.000002 207.120999 0.000394
0.155161 0.027051 0.000687 0.000002 160.552945 0.000290
0.156773 0.026709 0.000687 0.000002 632.060814 0.001154
0.158137 0.026363 0.000721 0.000002 136.327942 0.000265
0.159514 0.026508 0.000665 0.000002 294.254854 0.000559
0.161152 0.026028 0.000614 0.000002 80.881147 0.000140
0.162409 0.026506 0.000731 0.000002 16.464747 0.000032
0.163825 0.026578 0.000687 0.000002 253.739665 0.000472
0.165165 0.026273 0.000686 0.000002 166.946991 0.000288
0.166702 0.025920 0.000641 0.000002 452.757354 0.000728
0.167946 0.025656 0.000623 0.000002 110.749317 0.000175
0.170369 0.026441 0.000732 0.000002 442.198251 0.000861
0.172345 0.026243 0.000660 0.000002 290.600113 0.000603
0.174100 0.025518 0.000789 0.000002 134.067028 0.000298
0.176730 0.025667 0.000738 0.000002 345.481680 0.000658
0.179323 0.026037 0.000719 0.000002 0.000000 0.000000
0.180730 0.026679 0.000738 0.000002 109.099454 0.000214
0.182133 0.026252 0.000729 0.000002 32.626251 0.000070
0.184181 0.026234 0.000774 0.000002 356.796637 0.000729
0.186845 0.025986 0.000656 0.000002 0.000000 0.000000
0.187906 0.024914 0.000693 0.000002 549.888104 0.000972
0.191508 0.023549 0.000645 0.000002 1287.095653 0.002150
0.192538 0.022514 0.000816 0.000002 0.000000 0.000000
0.193708 0.023281 0.000577 0.000002 38.161663 0.000062
0.196302 0.020628 0.000689 0.000002 247.595128 0.000464
0.199188 0.020627 0.000568 0.000002 258.868031 0.000412
0.200352 0.020734 0.000601 0.000002 343.816674 0.000571
0.202614 0.020605 0.000808 0.000002 185.192382 0.000367
0.203914 0.019810 0.000716 0.000002 0.356223 0.000001
0.207903 0.019357 0.000757 0.000002 0.000000 0.000000
0.210539 0.019487 0.000708 0.000002 0.139746 0.000000
0.214053 0.019145 0.000639 0.000002 0.000000 0.000000
0.215721 0.018478 0.000725 0.000002 0.000000 0.000000
0.217936 0.016901 0.000711 0.000002 0.000000 0.000000
0.221020 0.016429 0.000705 0.000002 35.819457 0.000069
0.221895 0.015486 0.000582 0.000002 0.000000 0.000000
0.223150 0.016577 0.000688 0.000002 0.000000 0.000000
0.226051 0.016320 0.000747 0.000002 0.000000 0.000000
0.229997 0.013614 0.000669 0.000002 0.000000 0.000000
0.231204 0.012795 0.000779 0.000002 56.576702 0.000110
0.233146 0.011059 0.000590 0.000002 0.000000 0.000000
0.238450 0.010867 0.000652 0.000002 0.000000 0.000000
0.243854 0.009975 0.000559 0.000002 451.708553 0.000717
0.247119 0.008060 0.000654 0.000002 382.807966 0.000665
0.248300 0.007356 0.000722 0.000002 0.000000 0.000000
0.254473 0.007416 0.000798 0.000002 115.900618 0.000261
0.254932 0.006003 0.000687 0.000002 9.539183 0.000021
0.264387 0.004537 0.000783 0.000002 2352.841451 0.005386
0.267198 0.003710 0.000730 0.000002 580.278192 0.001308
0.270545 0.002088 0.000675 0.000002 0.000000 0.000000
0.275309 0.000678 0.000678 0.000003 0.000000 0.000000
0.282044 0.003998 0.000737 0.000003 0.000000 0.000000
0.280397 0.006030 0.000700 0.000000 0.000000 0.000000
0.000699 0.031234 0.000700 0.000002 74.637465 0.000155
0.002127 0.029649 0.000706 0.000002 404.845865 0.000814
0.003682 0.030140 0.000634 0.000002 161.525576 0.000262
0.004948 0.030494 0.000681 0.000002 1020.082866 0.001821
0.006035 0.029496 0.000794 0.000002 27.997768 0.000055
0.007514 0.029800 0.000716 0.000002 240.742563 0.000456
0.008864 0.029428 0.000675 0.000002 63.970782 0.000114
0.010241 0.029234 0.000715 0.000002 566.036630 0.001029
0.011713 0.029065 0.000766 0.000002 527.173911 0.001046
0.012621 0.030180 0.000672 0.000002 318.359671 0.000550
0.014028 0.030100 0.000738 0.000002 772.625732 0.001416
0.015575 0.029972 0.000814 0.000002 167.010836 0.000319
0.016988 0.030368 0.000653 0.000002 160.307462 0.000322
0.018437 0.030365 0.000796 0.000002 247.508596 0.000514
0.019975 0.030124 0.000761 0.000002 209.453665 0.000415
0.021260 0.029615 0.000622 0.000002 342.331976 0.000551
0.022502 0.029614 0.000620 0.000002 63.702443 0.000110
0.023737 0.029297 0.000654 0.000002 910.894186 0.001483
0.025044 0.029667 0.000705 0.000002 37.295708 0.000064
0.026413 0.030092 0.000728 0.000002 307.410142 0.000622
0.027889 0.030458 0.000793 0.000002 204.396490 0.000407
0.029417 0.030785 0.000769 0.000002 598.042536 0.001219
0.031280 0.030244 0.000682 0.000002 698.447723 0.001302
0.032617 0.029833 0.000717 0.000002 113.460764 0.000226
0.034388 0.029798 0.000679 0.000002 306.381745 0.000547
0.035717 0.029731 0.000596 0.000002 147.884883 0.000233
0.036971 0.029611 0.000664 0.000002 164.036767 0.000276
0.038343 0.030252 0.000851 0.000002 226.859673 0.000524
0.039986 0.030199 0.000622 0.000002 389.791872 0.000654
0.041628 0.030029 0.000735 0.000002 495.317643 0.000954
0.042890 0.029302 0.000723 0.000002 505.084596 0.001001
0.044208 0.028904 0.000655 0.000002 171.111537 0.000300
0.045515 0.029334 0.000721 0.000002 378.338205 0.000662
0.046833 0.029500 0.000608 0.000002 480.587356 0.000777
0.048099 0.029304 0.000674 0.000002 1.293185 0.000002
0.049429 0.029205 0.000660 0.000002 336.853278 0.000658
0.051486 0.029111 0.000774 0.000002 602.034810 0.001253
0.052882 0.029419 0.000656 0.000002 27.535620 0.000047
0.054088 0.029702 0.000584 0.000001 426.489414 0.000633
0.055262 0.029713 0.000591 0.000002 162.515428 0.000259
0.056661 0.029556 0.000816 0.000002 348.908077 0.000678
0.058158 0.029327 0.000699 0.000002 306.806775 0.000521
0.059425 0.029107 0.000587 0.000002 714.393257 0.001078
0.060705 0.029399 0.000690 0.000002 0.000000 0.000000
0.062206 0.029734 0.000722 0.000002 534.311896 0.001047
0.063596 0.029215 0.000762 0.000002 169.386640 0.000329
0.064917 0.028813 0.000619 0.000002 763.291475 0.001181
0.066142 0.029068 0.000633 0.000002 723.240678 0.001188
0.068696 0.029328 0.000825 0.000002 272.203342 0.000564
0.070158 0.029474 0.000645 0.000002 97.838838 0.000188
0.071563 0.029122 0.000803 0.000002 139.734631 0.000282
0.072987 0.029484 0.000667 0.000002 328.270216 0.000602
0.074449 0.029424 0.000796 0.000002 379.087716 0.000804
0.075926 0.029998 0.000789 0.000002 573.847843 0.001153
0.077247 0.030546 0.000641 0.000002 97.842292 0.000186
0.078635 0.030999 0.000819 0.000002 665.036556 0.001262
0.079830 0.030236 0.000589 0.000002 4.810824 0.000008
0.081177 0.030243 0.000758 0.000002 5.831771 0.000011
0.082749 0.029786 0.000655 0.000002 405.165266 0.000753
0.084222 0.029582 0.000832 0.000002 621.475049 0.001332
0.085671 0.029187 0.000670 0.000002 235.523814 0.000446
0.086680 0.030092 0.000686 0.000002 361.577857 0.000690
0.088027 0.029655 0.000730 0.000002 139.480219 0.000269
0.089554 0.029457 0.000811 0.000002 59.285905 0.000123
0.091088 0.029603 0.000730 0.000002 656.020092 0.001255
0.092380 0.029715 0.000567 0.000002 380.320902 0.000659
0.093667 0.029380 0.000763 0.000002 215.085185 0.000409
0.095076 0.029352 0.000617 0.000002 387.735223 0.000628
0.096406 0.029243 0.000718 0.000002 410.283605 0.000681
0.097726 0.029662 0.000667 0.000002 162.929676 0.000304
0.099425 0.029682 0.000853 0.000002 58.630013 0.000129
0.101928 0.029289 0.000628 0.000002 8.729141 0.000015
0.103271 0.029514 0.000735 0.000002 279.468937 0.000481
0.104565 0.029836 0.000599 0.000002 685.588916 0.001144
0.105778 0.029094 0.000823 0.000002 518.906242 0.001096
0.107464 0.029203 0.000818 0.000002 99.882888 0.000216
0.108980 0.029508 0.000728 0.000002 107.217417 0.000196
0.110411 0.029784 0.000730 0.000002 579.673268 0.001008
0.111802 0.029900 0.000594 0.000002 0.000000 0.000000
0.113159 0.030186 0.000793 0.000002 101.966052 0.000210
0.114590 0.029808 0.000687 0.000002 316.989329 0.000624
0.116046 0.029895 0.000771 0.000002 426.423896 0.000831
0.117608 0.029920 0.000791 0.000002 724.987636 0.001527
0.119198 0.029718 0.000742 0.000002 208.326324 0.000451
0.120571 0.029127 0.000753 0.000002 0.000000 0.000000
0.121965 0.029792 0.000792 0.000002 435.525877 0.000916
0.123405 0.030150 0.000692 0.000002 186.539528 0.000354
0.125871 0.029804 0.000678 0.000002 578.055472 0.001113
0.127205 0.030004 0.000670 0.000002 146.427789 0.000242
0.128415 0.030160 0.000550 0.000001 305.037555 0.000428
0.129550 0.030593 0.000559 0.000001 547.780109 0.000806
0.130888 0.030288 0.000814 0.000002 193.926385 0.000400
0.132730 0.030258 0.000817 0.000002 446.886729 0.001004
0.133952 0.029650 0.000548 0.000002 15.937638 0.000026
0.135234 0.029380 0.000762 0.000002 765.757092 0.001435
0.136788 0.029193 0.000754 0.000002 126.948967 0.000261
0.137745 0.030358 0.000754 0.000002 197.091671 0.000432
0.139249 0.030182 0.000739 0.000002 415.392569 0.000817
0.140952 0.030110 0.000844 0.000002 209.020452 0.000467
0.142455 0.030025 0.000662 0.000002 214.206803 0.000402
0.143868 0.029650 0.000799 0.000002 85.833348 0.000169
0.145290 0.029454 0.000560 0.000002 253.412050 0.000405
0.146103 0.028503 0.000650 0.000002 0.000000 0.000000
0.147433 0.029130 0.000795 0.000002 448.460642 0.001013
0.150014 0.029073 0.000707 0.000002 386.183415 0.000738
0.151418 0.028883 0.000657 0.000002 107.268130 0.000185
0.152769 0.028579 0.000728 0.000002 44.710307 0.000090
0.154864 0.028517 0.000809 0.000002 455.952451 0.000969
0.156258 0.027980 0.000686 0.000002 340.486314 0.000671
0.157761 0.027859 0.000822 0.000002 75.191379 0.000170
0.159618 0.027886 0.000717 0.000002 104.636989 0.000216
0.160605 0.027071 0.000564 0.000002 289.482198 0.000459
0.161685 0.027764 0.000720 0.000002 386.076946 0.000768
0.164786 0.027635 0.000727 0.000002 228.464833 0.000434
0.166245 0.027264 0.000779 0.000002 396.985160 0.000735
0.167652 0.026916 0.000671 0.000002 4.602726 0.000008
0.169006 0.026831 0.000686 0.000002 155.751475 0.000263
0.171531 0.027514 0.000850 0.000002 261.771406 0.000605
0.173564 0.026976 0.000764 0.000002 199.526678 0.000421
0.175401 0.026365 0.000763 0.000002 139.055286 0.000281
0.177935 0.026592 0.000727 0.000002 240.885599 0.000484
0.179569 0.027472 0.000668 0.000002 54.434885 0.000103
0.182282 0.027640 0.000668 0.000002 0.000000 0.000000
0.183625 0.027495 0.000605 0.000002 348.577868 0.000628
0.185500 0.026934 0.000674 0.000002 177.307353 0.000352
0.188239 0.026294 0.000728 0.000002 381.150221 0.000731
0.189266 0.025146 0.000641 0.000002 300.454074 0.000516
0.190295 0.024200 0.000732 0.000002 0.000000 0.000000
0.192710 0.023937 0.000616 0.000002 34.989214 0.000054
0.194344 0.024403 0.000712 0.000002 34.729908 0.000065
0.195675 0.021891 0.000721 0.000002 299.471982 0.000544
0.197082 0.021767 0.000691 0.000002 11.002618 0.000021
0.201403 0.021505 0.000702 0.000002 249.851686 0.000497
0.205116 0.020345 0.000599 0.000002 181.329998 0.000300
0.206472 0.020009 0.000798 0.000002 29.953725 0.000060
0.209243 0.020198 0.000770 0.000002 6.688940 0.000014
0.212860 0.019951 0.000799 0.000002 6.421488 0.000013
0.217771 0.018651 0.000761 0.000002 0.000000 0.000000
0.216801 0.017661 0.000623 0.000002 0.000000 0.000000
0.220593 0.017780 0.000712 0.000002 0.987921 0.000002
0.223555 0.017916 0.000706 0.000002 0.000000 0.000000
0.224605 0.016849 0.000791 0.000002 0.000000 0.000000
0.228812 0.016207 0.000631 0.000002 0.000000 0.000000
0.229354 0.014908 0.000775 0.000002 -0.106903 -0.000000
0.234155 0.012294 0.000793 0.000002 24.441800 0.000051
0.235625 0.012076 0.000694 0.000002 21.408844 0.000046
0.237248 0.011408 0.000610 0.000002 55.853436 0.000105
0.242611 0.010257 0.000716 0.000002 415.893248 0.000784
0.246366 0.009277 0.000776 0.000002 0.836029 0.000002
0.256481 0.007634 0.000646 0.000002 0.000000 0.000000
0.259260 0.007153 0.000621 0.000002 0.000000 0.000000
0.257487 0.005878 0.000652 0.000002 1326.550129 0.002401
0.262904 0.004490 0.000700 0.000002 -1.775287 -0.000003
0.268772 0.003836 0.000593 0.000002 15.175454 0.000027
0.272909 0.003187 0.000635 0.000002 0.000000 0.000000
0.276422 0.014440 0.000710 0.000000 0.000000 0.000000
0.283539 0.004214 0.000701 0.000002 0.000000 0.000000
0.280572 0.004509 0.000728 0.000002 0.000000 0.000000
0.001837 0.032099 0.000730 0.000002 1101.993865 0.002150
0.002637 0.030938 0.000681 0.000002 37.193387 0.000075
0.003941 0.031491 0.000736 0.000002 427.582539 0.000879
0.005696 0.031675 0.000717 0.000002 355.306311 0.000677
0.006629 0.030690 0.000539 0.000002 0.000000 0.000000
0.008347 0.031032 0.000771 0.000002 373.456097 0.000750
0.009676 0.030492 0.000664 0.000002 455.333472 0.000805
0.011094 0.030454 0.000754 0.000002 125.943715 0.000238
0.012098 0.031282 0.000548 0.000002 411.575862 0.000620
0.013360 0.031397 0.000720 0.000002 590.716234 0.001023
0.014763 0.031319 0.000685 0.000002 194.979498 0.000365
0.016111 0.031349 0.000663 0.000002 294.355189 0.000509
0.016836 0.032362 0.000583 0.000002 326.612613 0.000505
0.018043 0.031842 0.000732 0.000002 156.486049 0.000301
0.019431 0.031469 0.000689 0.000002 53.737353 0.000106
0.021216 0.030985 0.000749 0.000002 423.570157 0.000927
0.022694 0.030951 0.000730 0.000002 185.683442 0.000366
0.024013 0.030565 0.000644 0.000002 538.868950 0.000944
0.025323 0.031147 0.000789 0.000002 627.221101 0.001311
0.026844 0.031698 0.000829 0.000002 217.640997 0.000485
0.028331 0.031815 0.000634 0.000002 0.339394 0.000001
0.029545 0.032182 0.000634 0.000002 742.468884 0.001286
0.030761 0.031559 0.000732 0.000002 128.940366 0.000252
0.032199 0.031289 0.000710 0.000002 359.215421 0.000635
0.033554 0.030896 0.000701 0.000002 168.536281 0.000310
0.035189 0.030879 0.000667 0.000002 398.182144 0.000676
0.036456 0.030769 0.000604 0.000002 149.379122 0.000248
0.037519 0.031615 0.000743 0.000002 194.183797 0.000396
0.039507 0.031529 0.000791 0.000002 175.840482 0.000350
0.040821 0.031085 0.000595 0.000001 469.538310 0.000699
0.042956 0.030850 0.000828 0.000002 473.774379 0.000939
0.044423 0.030243 0.000701 0.000002 99.118380 0.000197
0.046097 0.030707 0.000770 0.000002 289.801655 0.000611
0.047567 0.030588 0.000705 0.000002 576.357128 0.001038
0.048958 0.030472 0.000692 0.000002 385.403000 0.000679
0.050461 0.030328 0.000818 0.000002 462.554993 0.000938
0.051985 0.030488 0.000691 0.000002 38.960472 0.000068
0.053306 0.030643 0.000640 0.000001 216.636667 0.000319
0.054610 0.030789 0.000622 0.000001 228.982641 0.000317
0.055874 0.030785 0.000643 0.000002 417.771005 0.000647
0.057335 0.030848 0.000642 0.000002 59.824651 0.000102
0.058554 0.030520 0.000558 0.000002 362.918316 0.000545
0.059696 0.030273 0.000610 0.000001 663.961928 0.000969
0.060880 0.030797 0.000684 0.000002 71.790284 0.000119
0.062098 0.031003 0.000551 0.000001 673.672101 0.000964
0.063418 0.030759 0.000792 0.000002 458.568257 0.000924
0.064739 0.030103 0.000684 0.000002 180.869353 0.000318
0.066069 0.030371 0.000673 0.000002 904.802052 0.001550
0.067258 0.029743 0.000672 0.000002 102.047090 0.000195
0.069479 0.030611 0.000679 0.000002 314.542403 0.000572
0.070819 0.030933 0.000699 0.000002 55.208987 0.000107
0.072109 0.030487 0.000666 0.000002 345.529202 0.000616
0.073380 0.030711 0.000621 0.000002 129.785262 0.000228
0.074720 0.030932 0.000736 0.000002 370.844106 0.000727
0.076043 0.031477 0.000695 0.000002 321.234221 0.000584
0.077390 0.031895 0.000715 0.000002 493.402016 0.000873
0.078690 0.032420 0.000604 0.000002 364.550103 0.000652
0.080021 0.031450 0.000639 0.000002 95.970750 0.000161
0.081277 0.031629 0.000631 0.000002 560.349180 0.000916
0.082328 0.030976 0.000607 0.000002 110.748922 0.000171
0.083770 0.031204 0.000853 0.000002 395.599759 0.000844
0.085354 0.030748 0.000794 0.000002 183.601113 0.000435
0.087489 0.031224 0.000706 0.000002 347.273302 0.000696
0.088850 0.030835 0.000709 0.000002 64.333063 0.000125
0.090279 0.030806 0.000720 0.000002 303.347992 0.000589
0.091804 0.030929 0.000778 0.000002 639.651080 0.001216
0.093288 0.030932 0.000707 0.000002 327.442514 0.000591
0.094529 0.030462 0.000621 0.000002 383.844702 0.000590
0.095771 0.030423 0.000623 0.000002 276.631811 0.000422
0.097011 0.030819 0.000680 0.000002 76.331607 0.000130
0.098400 0.030863 0.000711 0.000002 136.502255 0.000256
0.099764 0.031214 0.000698 0.000002 327.246198 0.000657
0.100885 0.030336 0.000726 0.000002 752.491312 0.001429
0.102297 0.030576 0.000707 0.000002 204.808844 0.000379
0.103760 0.030901 0.000736 0.000002 327.342896 0.000597
0.105190 0.030969 0.000695 0.000002 132.864094 0.000265
0.106540 0.030465 0.000746 0.000002 498.936061 0.001040
0.108058 0.030717 0.000792 0.000002 76.453399 0.000150
0.109479 0.030775 0.000631 0.000002 147.933699 0.000259
0.110836 0.031191 0.000740 0.000002 382.483053 0.000690
0.112206 0.031243 0.000631 0.000002 103.698887 0.000180
0.114373 0.031233 0.000754 0.000002 196.370725 0.000388
0.115730 0.031233 0.000604 0.000002 362.863903 0.000655
0.117082 0.031374 0.000756 0.000002 491.762122 0.000967
0.118620 0.031145 0.000798 0.000002 300.172769 0.000629
0.120256 0.030854 0.000810 0.000002 4.875673 0.000012
0.121688 0.031227 0.000670 0.000002 367.613711 0.000737
0.123234 0.031426 0.000596 0.000002 139.620683 0.000251
0.124771 0.030794 0.000800 0.000002 64.572956 0.000140
0.126359 0.031144 0.000749 0.000002 628.210247 0.001240
0.127858 0.031351 0.000764 0.000002 267.974192 0.000488
0.129184 0.031692 0.000600 0.000002 482.819712 0.000725
0.130422 0.031664 0.000639 0.000002 103.960322 0.000175
0.131827 0.031562 0.000769 0.000002 187.442668 0.000384
0.133615 0.031639 0.000824 0.000002 602.661990 0.001322
0.134671 0.030648 0.000625 0.000002 214.445354 0.000385
0.136181 0.030674 0.000842 0.000002 230.834645 0.000513
0.136717 0.032194 0.000770 0.000002 57.464490 0.000128
0.138650 0.031459 0.000671 0.000002 555.434178 0.001015
0.140061 0.031360 0.000691 0.000002 108.622075 0.000213
0.141952 0.031312 0.000720 0.000002 225.074376 0.000444
0.143339 0.031013 0.000663 0.000002 97.693006 0.000185
0.144953 0.030634 0.000666 0.000002 182.621109 0.000321
0.146351 0.030267 0.000776 0.000002 585.048851 0.001146
0.147855 0.030637 0.000770 0.000002 114.613946 0.000226
0.149240 0.030221 0.000677 0.000002 0.000000 0.000000
0.150918 0.030106 0.000665 0.000002 477.407867 0.000826
0.152272 0.029937 0.000700 0.000002 4.217535 0.000008
0.153790 0.029754 0.000829 0.000002 361.654016 0.000741
0.155182 0.029847 0.000558 0.000002 55.771926 0.000101
0.156978 0.029244 0.000769 0.000002 326.027412 0.000755
0.158760 0.029137 0.000800 0.000002 102.399028 0.000237
0.160603 0.028967 0.000746 0.000002 0.997016 0.000002
0.163245 0.028012 0.000860 0.000002 413.808884 0.000912
0.164753 0.028982 0.000621 0.000002 49.462494 0.000087
0.166041 0.028677 0.000649 0.000002 179.575261 0.000312
0.167352 0.028277 0.000722 0.000002 183.607380 0.000356
0.168767 0.028192 0.000696 0.000002 126.757980 0.000258
0.170028 0.027765 0.000635 0.000002 152.677751 0.000275
0.173170 0.028328 0.000645 0.000002 14.001995 0.000027
0.174806 0.027644 0.000647 0.000002 226.548896 0.000396
0.176643 0.027045 0.000643 0.000002 214.024246 0.000394
0.178253 0.028057 0.000773 0.000002 167.429475 0.000341
0.180920 0.028217 0.000811 0.000002 0.000000 0.000000
0.183143 0.028713 0.000706 0.000002 326.285085 0.000584
0.184745 0.027982 0.000617 0.000002 135.184345 0.000239
0.188121 0.027696 0.000680 0.000002 101.024886 0.000217
0.189599 0.026372 0.000629 0.000002 252.839954 0.000419
0.190697 0.025593 0.000717 0.000002 49.099565 0.000085
0.191785 0.024795 0.000632 0.000002 858.226197 0.001402
0.193155 0.025183 0.000708 0.000002 132.882583 0.000252
0.195103 0.023202 0.000706 0.000002 0.000000 0.000000
0.196504 0.022967 0.000637 0.000002 219.462533 0.000377
0.198441 0.021620 0.000676 0.000002 268.932284 0.000449
0.203973 0.021122 0.000596 0.000002 41.501363 0.000070
0.205191 0.021634 0.000693 0.000002 131.005835 0.000227
0.207818 0.020958 0.000845 0.000002 7.717547 0.000017
0.211459 0.020626 0.000756 0.000002 59.064483 0.000127
0.215195 0.019757 0.000658 0.000002 47.000066 0.000078
0.216631 0.019594 0.000711 0.000002 0.000000 0.000000
0.219175 0.018191 0.000707 0.000002 0.000000 0.000000
0.222033 0.017494 0.000756 0.000002 78.078547 0.000160
0.225312 0.018109 0.000652 0.000002 20.589887 0.000041
0.227496 0.016412 0.000701 0.000002 0.000000 0.000000
0.231773 0.014110 0.000654 0.000002 0.000000 0.000000
0.232707 0.012750 0.000725 0.000002 33.958308 0.000069
0.238720 0.012298 0.000804 0.000002 0.000000 0.000000
0.240098 0.011443 0.000811 0.000002 0.000000 0.000000
0.241660 0.011249 0.000658 0.000002 335.774638 0.000595
0.244906 0.009312 0.000686 0.000002 64.133801 0.000122
0.250954 0.008160 0.000795 0.000002 0.000000 0.000000
0.257900 0.007202 0.000736 0.000002 1463.598257 0.002954
0.256248 0.006337 0.000670 0.000002 0.000000 0.000000
0.261614 0.004557 0.000591 0.000002 1566.883434 0.002659
0.267579 0.005158 0.000767 0.000002 123.546717 0.000246
0.271322 0.003440 0.000735 0.000002 0.000000 0.000000
0.279247 0.004821 0.000546 0.000002 0.000000 0.000000
0.278996 0.006040 0.000693 0.000003 0.000000 0.000000
0.276441 0.005125 0.000617 0.000002 0.000000 0.000000
0.257154 0.013168 0.000701 0.000002 -0.711126 -0.000002
0.000612 0.032647 0.000612 0.000002 0.000000 0.000000
0.001971 0.033490 0.000667 0.000002 907.019678 0.001624
0.003336 0.032917 0.000814 0.000002 29.858766 0.000064
0.004895 0.032898 0.000746 0.000002 245.460382 0.000498
0.007153 0.032023 0.000781 0.000002 310.777802 0.000582
0.008475 0.032570 0.000651 0.000002 741.449076 0.001342
0.009551 0.031815 0.000665 0.000002 10.907184 0.000019
0.010980 0.031990 0.000776 0.000002 251.359639 0.000505
0.012424 0.032568 0.000779 0.000002 464.896024 0.000938
0.013902 0.032717 0.000707 0.000002 284.533372 0.000541
0.015404 0.032655 0.000797 0.000002 89.185211 0.000168
0.016502 0.033461 0.000566 0.000002 262.277905 0.000438
0.017763 0.033242 0.000696 0.000002 587.200191 0.000966
0.019093 0.032817 0.000700 0.000002 23.967996 0.000044
0.020607 0.032468 0.000854 0.000002 286.227797 0.000637
0.022313 0.032485 0.000851 0.000002 117.082572 0.000280
0.023888 0.032001 0.000797 0.000002 253.961203 0.000576
0.025554 0.032692 0.000774 0.000002 331.426301 0.000711
0.026968 0.033280 0.000759 0.000002 301.190196 0.000669
0.028579 0.033314 0.000854 0.000002 380.358469 0.000841
0.030360 0.033287 0.000739 0.000002 251.329637 0.000516
0.031741 0.032691 0.000765 0.000002 216.379296 0.000389
0.033070 0.032296 0.000622 0.000002 304.601825 0.000496
0.034414 0.032056 0.000743 0.000002 181.885350 0.000324
0.036013 0.032164 0.000860 0.000002 276.345674 0.000538
0.037272 0.032969 0.000634 0.000002 398.105160 0.000651
0.038540 0.032634 0.000678 0.000002 78.207904 0.000138
0.040652 0.032209 0.000541 0.000001 424.197603 0.000573
0.041836 0.031869 0.000687 0.000002 0.000000 0.000000
0.043298 0.032179 0.000544 0.000002 478.317342 0.000734
0.044205 0.031509 0.000584 0.000002 94.604094 0.000159
0.045437 0.032124 0.000794 0.000002 339.718539 0.000705
0.047032 0.032000 0.000806 0.000002 439.490411 0.000906
0.048545 0.031820 0.000717 0.000002 277.294624 0.000522
0.049848 0.031609 0.000603 0.000002 0.000000 0.000000
0.051213 0.031653 0.000706 0.000002 476.690520 0.000827
0.052599 0.031761 0.000684 0.000002 206.667580 0.000336
0.053914 0.031833 0.000633 0.000002 0.000000 0.000000
0.055223 0.031925 0.000670 0.000002 438.615534 0.000665
0.056559 0.031900 0.000666 0.000002 126.005593 0.000206
0.058305 0.031707 0.000655 0.000002 368.130416 0.000592
0.059698 0.031623 0.000740 0.000002 398.168321 0.000729
0.061446 0.031954 0.000603 0.000002 513.320514 0.000783
0.062730 0.032066 0.000686 0.000002 464.068065 0.000726
0.064137 0.032243 0.000732 0.000002 19.935217 0.000037
0.065189 0.031353 0.000645 0.000002 166.113288 0.000291
0.066629 0.031695 0.000764 0.000002 588.835315 0.001133
0.068070 0.030927 0.000764 0.000002 60.668933 0.000121
0.069129 0.031963 0.000718 0.000002 243.267830 0.000428
0.070487 0.032287 0.000678 0.000002 88.593585 0.000171
0.071929 0.031945 0.000804 0.000002 228.961428 0.000445
0.073447 0.032048 0.000717 0.000002 53.680396 0.000100
0.074912 0.032460 0.000804 0.000002 586.810356 0.001149
0.076337 0.032800 0.000661 0.000002 13.179501 0.000024
0.077672 0.033378 0.000794 0.000002 439.326567 0.000826
0.080148 0.032723 0.000641 0.000002 56.988208 0.000097
0.081557 0.032996 0.000765 0.000002 369.146518 0.000637
0.082604 0.032139 0.000588 0.000002 15.197418 0.000024
0.083664 0.032634 0.000581 0.000002 293.956568 0.000471
0.085004 0.032302 0.000799 0.000002 290.034062 0.000593
0.086550 0.032334 0.000747 0.000002 54.588047 0.000119
0.087995 0.032550 0.000713 0.000002 256.195769 0.000515
0.089410 0.032182 0.000749 0.000002 0.294343 0.000001
0.090885 0.032120 0.000727 0.000002 1062.894894 0.002024
0.092628 0.032195 0.000718 0.000002 149.946653 0.000274
0.094029 0.032071 0.000652 0.000002 2.589853 0.000004
0.095182 0.031522 0.000625 0.000001 717.624684 0.001058
0.096363 0.031964 0.000636 0.000002 48.545615 0.000079
0.097707 0.032109 0.000716 0.000002 94.792131 0.000177
0.099092 0.032450 0.000710 0.000002 77.817926 0.000156
0.101188 0.031929 0.000896 0.000002 697.341989 0.001564
0.102749 0.031872 0.000666 0.000002 580.143742 0.001095
0.104129 0.032406 0.000813 0.000002 0.170453 0.000000
0.105703 0.032333 0.000762 0.000002 144.038914 0.000306
0.107052 0.031804 0.000688 0.000002 495.956852 0.000944
0.108334 0.032114 0.000631 0.000002 86.077901 0.000154
0.109669 0.032096 0.000704 0.000002 38.140721 0.000066
0.110893 0.032522 0.000592 0.000001 477.918702 0.000704
0.112060 0.032443 0.000578 0.000001 139.044018 0.000195
0.113294 0.032182 0.000683 0.000002 197.475325 0.000361
0.115254 0.032411 0.000668 0.000002 281.886372 0.000501
0.116598 0.032772 0.000724 0.000002 240.390955 0.000443
0.117988 0.032437 0.000641 0.000002 322.874165 0.000597
0.119358 0.032483 0.000730 0.000002 237.358664 0.000488
0.120875 0.032436 0.000788 0.000002 141.845831 0.000284
0.122383 0.032431 0.000721 0.000002 283.780692 0.000486
0.123878 0.032473 0.000633 0.000002 53.013572 0.000093
0.125320 0.032315 0.000817 0.000002 272.220207 0.000570
0.126910 0.032545 0.000757 0.000002 250.396671 0.000506
0.128380 0.032748 0.000728 0.000002 747.948417 0.001370
0.129799 0.032844 0.000695 0.000002 79.888971 0.000129
0.131247 0.032976 0.000759 0.000002 0.000000 0.000000
0.132632 0.032682 0.000610 0.000002 352.843983 0.000645
0.134161 0.033227 0.000856 0.000002 528.677083 0.001186
0.135187 0.031954 0.000779 0.000002 43.572918 0.000089
0.135775 0.033256 0.000649 0.000002 69.684155 0.000130
0.138015 0.032524 0.000569 0.000002 328.608172 0.000604
0.139426 0.032719 0.000809 0.000002 305.510269 0.000632
0.141012 0.032384 0.000706 0.000002 0.000000 0.000000
0.142882 0.032480 0.000774 0.000002 305.656324 0.000669
0.144429 0.032040 0.000835 0.000002 224.947716 0.000499
0.145846 0.031600 0.000650 0.000002 595.356144 0.001050
0.147086 0.031775 0.000603 0.000002 81.241065 0.000141
0.148850 0.031598 0.000613 0.000002 23.011924 0.000038
0.150175 0.031304 0.000744 0.000002 209.967303 0.000376
0.151712 0.031260 0.000735 0.000002 226.106380 0.000421
0.153195 0.031214 0.000748 0.000002 201.699844 0.000395
0.154665 0.030885 0.000602 0.000002 98.400596 0.000167
0.156267 0.030599 0.000762 0.000002 110.186494 0.000224
0.157920 0.030538 0.000833 0.000002 305.482044 0.000721
0.159825 0.030174 0.000687 0.000002 0.672308 0.000001
0.162114 0.029205 0.000784 0.000002 644.607697 0.001292
0.163579 0.029497 0.000662 0.000002 114.454204 0.000208
0.165637 0.029967 0.000702 0.000002 200.652045 0.000340
0.167050 0.029701 0.000733 0.000002 133.976466 0.000273
0.169133 0.029682 0.000838 0.000002 52.079424 0.000126
0.170567 0.029029 0.000738 0.000002 101.217439 0.000216
0.172001 0.028986 0.000696 0.000002 300.555178 0.000569
0.174349 0.028838 0.000632 0.000002 79.622773 0.000142
0.175948 0.028024 0.000558 0.000002 388.632748 0.000595
0.176962 0.028787 0.000711 0.000002 256.116956 0.000494
0.179570 0.028796 0.000656 0.000002 0.000000 0.000000
0.181889 0.029419 0.000733 0.000002 90.889573 0.000187
0.184406 0.029196 0.000645 0.000002 137.004441 0.000227
0.186612 0.027988 0.000858 0.000002 75.826133 0.000180
0.189743 0.027641 0.000648 0.000002 73.950083 0.000127
0.190908 0.026948 0.000654 0.000002 209.851520 0.000373
0.192057 0.026147 0.000747 0.000002 627.699339 0.001234
0.195172 0.025470 0.000639 0.000002 54.616859 0.000107
0.196056 0.024183 0.000658 0.000002 0.000000 0.000000
0.197480 0.023869 0.000693 0.000002 412.763573 0.000849
0.198612 0.023011 0.000727 0.000002 165.328341 0.000373
0.199730 0.021792 0.000625 0.000002 253.756998 0.000449
0.202688 0.021967 0.000556 0.000002 0.000000 0.000000
0.206452 0.021397 0.000590 0.000002 0.000000 0.000000
0.210188 0.021308 0.000686 0.000002 0.000000 0.000000
0.214166 0.020521 0.000625 0.000002 171.127807 0.000298
0.218737 0.019825 0.000758 0.000002 15.511208 0.000035
0.220312 0.019353 0.000885 0.000002 0.000000 0.000000
0.221842 0.018937 0.000700 0.000002 0.000000 0.000000
0.226449 0.019188 0.000788 0.000002 218.080274 0.000488
0.226624 0.017682 0.000728 0.000002 -0.010299 -0.000000
0.230739 0.014842 0.000612 0.000002 666.189509 0.001202
0.233106 0.014085 0.000667 0.000002 3.164251 0.000005
0.237147 0.012786 0.000772 0.000002 23.240345 0.000048
0.241164 0.012357 0.000556 0.000002 198.604104 0.000358
0.242398 0.012397 0.000679 0.000002 0.000000 0.000000
0.244949 0.010803 0.000805 0.000002 0.000000 0.000000
0.249250 0.008576 0.000755 0.000002 671.927299 0.001444
0.255481 0.008632 0.000765 0.000002 0.000000 0.000000
0.260715 0.007272 0.000803 0.000002 2051.912983 0.004375
0.262108 0.006677 0.000616 0.000002 0.000000 0.000000
0.261039 0.005760 0.000744 0.000002 0.000000 0.000000
0.266022 0.005222 0.000772 0.000002 0.000000 0.000000
0.270755 0.004734 0.000677 0.000002 0.000000 0.000000
0.269908 0.003284 0.000670 0.000002 0.000000 0.000000
0.277743 0.004747 0.000721 0.000002 0.000000 0.000000
0.277534 0.006233 0.000768 0.000002 0.000000 0.000000
0.000769 0.034275 0.000770 0.000002 386.526985 0.000791
0.002946 0.034234 0.000560 0.000002 344.485705 0.000524
0.004314 0.034344 0.000812 0.000002 226.987198 0.000458
0.006236 0.033063 0.000606 0.000002 265.020468 0.000442
0.007479 0.033503 0.000714 0.000002 343.169452 0.000614
0.008897 0.033921 0.000764 0.000002 568.246907 0.001007
0.010088 0.033126 0.000668 0.000002 19.032933 0.000037
0.011416 0.033825 0.000833 0.000002 115.516779 0.000266
0.013099 0.034049 0.000849 0.000002 292.211437 0.000649
0.014557 0.033864 0.000615 0.000002 207.122937 0.000374
0.015640 0.034713 0.000762 0.000002 101.980639 0.000214
0.017209 0.034641 0.000809 0.000002 677.042773 0.001319
0.018655 0.034289 0.000680 0.000002 18.566240 0.000034
0.019990 0.033905 0.000710 0.000002 79.186647 0.000155
0.021449 0.033835 0.000751 0.000002 117.519564 0.000244
0.022911 0.033930 0.000713 0.000002 244.273095 0.000505
0.024275 0.033474 0.000726 0.000002 304.510818 0.000622
0.025517 0.034156 0.000691 0.000002 143.569975 0.000261
0.026728 0.034626 0.000608 0.000002 444.687399 0.000708
0.028025 0.034754 0.000690 0.000002 154.914054 0.000294
0.029591 0.034593 0.000777 0.000002 332.131958 0.000695
0.031504 0.034100 0.000665 0.000002 232.025012 0.000410
0.032641 0.033656 0.000555 0.000002 42.436887 0.000064
0.033781 0.033328 0.000631 0.000001 338.301743 0.000492
0.035031 0.033273 0.000621 0.000002 280.737246 0.000456
0.036213 0.033630 0.000615 0.000002 163.305144 0.000257
0.037043 0.034623 0.000679 0.000002 117.756944 0.000219
0.038149 0.033896 0.000643 0.000002 320.397940 0.000521
0.039808 0.033064 0.000661 0.000002 214.923696 0.000382
0.041328 0.033194 0.000654 0.000002 203.710476 0.000377
0.042721 0.033333 0.000746 0.000002 292.207606 0.000554
0.044230 0.032997 0.000696 0.000002 335.028694 0.000596
0.046320 0.033307 0.000683 0.000002 542.762201 0.001024
0.047729 0.033366 0.000728 0.000002 104.734575 0.000221
0.049084 0.033083 0.000656 0.000002 194.018551 0.000330
0.050411 0.032807 0.000700 0.000002 132.654217 0.000232
0.051813 0.032932 0.000707 0.000002 248.732441 0.000474
0.053202 0.032985 0.000682 0.000002 151.250900 0.000261
0.054574 0.033128 0.000698 0.000002 264.481045 0.000449
0.055916 0.033041 0.000644 0.000002 128.724077 0.000213
0.057555 0.032847 0.000709 0.000002 425.310969 0.000759
0.058990 0.032846 0.000673 0.000002 0.000000 0.000000
0.060473 0.032893 0.000749 0.000002 780.953473 0.001437
0.061907 0.033124 0.000655 0.000002 270.064134 0.000432
0.063243 0.033241 0.000597 0.000002 192.635327 0.000319
0.064512 0.033673 0.000744 0.000002 377.393392 0.000744
0.065526 0.032651 0.000696 0.000002 17.087153 0.000032
0.066854 0.033172 0.000730 0.000002 413.075459 0.000718
0.067854 0.032290 0.000598 0.000002 251.047692 0.000402
0.068181 0.033475 0.000631 0.000002 286.124833 0.000445
0.069399 0.033259 0.000606 0.000002 155.238352 0.000289
0.071395 0.033475 0.000817 0.000002 163.950760 0.000339
0.072691 0.033059 0.000545 0.000001 77.552189 0.000115
0.073837 0.033476 0.000676 0.000002 419.048175 0.000705
0.075206 0.033936 0.000702 0.000002 253.344970 0.000464
0.076526 0.034278 0.000663 0.000002 184.481950 0.000346
0.079159 0.033657 0.000719 0.000002 209.102885 0.000361
0.080513 0.033988 0.000675 0.000002 93.061635 0.000151
0.081695 0.034300 0.000547 0.000001 493.241576 0.000714
0.082898 0.033753 0.000775 0.000002 0.107533 0.000000
0.084412 0.033723 0.000740 0.000002 292.659793 0.000496
0.085801 0.033527 0.000662 0.000002 152.355246 0.000277
0.087237 0.033879 0.000817 0.000002 150.758469 0.000339
0.088868 0.033807 0.000816 0.000002 132.639115 0.000304
0.090458 0.033576 0.000791 0.000002 850.125751 0.001807
0.091724 0.033099 0.000562 0.000002 25.066948 0.000042
0.092876 0.033576 0.000686 0.000002 125.673707 0.000215
0.094171 0.033358 0.000627 0.000002 54.272150 0.000089
0.095359 0.032815 0.000680 0.000002 609.164727 0.000974
0.096622 0.033378 0.000703 0.000002 15.076009 0.000029
0.098093 0.033552 0.000777 0.000002 140.245682 0.000284
0.100255 0.033178 0.000663 0.000002 184.245828 0.000369
0.101575 0.033416 0.000641 0.000002 616.391001 0.001116
0.102874 0.033207 0.000675 0.000002 369.016161 0.000644
0.103894 0.034147 0.000711 0.000002 371.872421 0.000696
0.105213 0.033693 0.000683 0.000002 39.316938 0.000079
0.107134 0.033315 0.000827 0.000002 312.973087 0.000683
0.108629 0.033381 0.000670 0.000002 41.406235 0.000074
0.110023 0.033518 0.000731 0.000002 214.533811 0.000380
0.111505 0.033575 0.000627 0.000002 291.896370 0.000440
0.112807 0.033455 0.000680 0.000002 283.532020 0.000447
0.114173 0.033252 0.000702 0.000002 206.722632 0.000384
0.115535 0.033818 0.000767 0.000002 143.229438 0.000293
0.117115 0.033987 0.000596 0.000002 186.781403 0.000350
0.118528 0.033803 0.000829 0.000002 333.743993 0.000671
0.120100 0.033756 0.000743 0.000002 221.317103 0.000455
0.121694 0.033575 0.000615 0.000002 0.000000 0.000000
0.123178 0.033603 0.000696 0.000002 281.515015 0.000459
0.124560 0.033611 0.000686 0.000002 269.950290 0.000466
0.125985 0.033727 0.000744 0.000002 238.733242 0.000464
0.127498 0.033983 0.000790 0.000002 210.932302 0.000426
0.129037 0.034068 0.000747 0.000002 424.227967 0.000776
0.130346 0.033968 0.000555 0.000001 4.398954 0.000006
0.131407 0.034398 0.000590 0.000001 5.548130 0.000008
0.132573 0.033950 0.000660 0.000002 356.989589 0.000615
0.133687 0.034679 0.000672 0.000002 261.303158 0.000490
0.135140 0.034524 0.000769 0.000002 85.531220 0.000174
0.136868 0.033986 0.000665 0.000002 15.314684 0.000033
0.138303 0.033839 0.000777 0.000002 301.023338 0.000650
0.140301 0.034021 0.000760 0.000002 303.712686 0.000668
0.141828 0.033662 0.000810 0.000002 130.034290 0.000265
0.143407 0.033871 0.000713 0.000002 29.240306 0.000058
0.144842 0.033572 0.000752 0.000002 107.173707 0.000223
0.146326 0.032928 0.000764 0.000002 471.901518 0.000948
0.148052 0.032605 0.000671 0.000002 104.414565 0.000192
0.149635 0.032590 0.000652 0.000002 182.848802 0.000303
0.151010 0.032541 0.000725 0.000002 64.942703 0.000114
0.152480 0.032525 0.000745 0.000002 182.992417 0.000347
0.154163 0.032216 0.000646 0.000002 83.314445 0.000146
0.155534 0.031927 0.000755 0.000002 92.458604 0.000181
0.157076 0.031921 0.000788 0.000002 116.470315 0.000255
0.158863 0.031741 0.000696 0.000002 195.725924 0.000409
0.161192 0.030357 0.000692 0.000002 364.789737 0.000702
0.162724 0.030562 0.000704 0.000002 368.081418 0.000709
0.164363 0.030679 0.000757 0.000002 0.000000 0.000000
0.166784 0.031037 0.000629 0.000002 145.625171 0.000220
0.168073 0.030776 0.000686 0.000002 4.059898 0.000007
0.170505 0.030553 0.000788 0.000002 39.641691 0.000088
0.171971 0.030371 0.000689 0.000002 361.687853 0.000686
0.173278 0.029734 0.000765 0.000002 0.000000 0.000000
0.175614 0.029227 0.000691 0.000002 243.768536 0.000456
0.177229 0.030189 0.000716 0.000002 192.608041 0.000416
0.178432 0.029492 0.000674 0.000002 80.486498 0.000147
0.180475 0.029878 0.000754 0.000002 5.243197 0.000010
0.183365 0.030213 0.000811 0.000002 190.430331 0.000409
0.185688 0.029160 0.000635 0.000002 104.621717 0.000191
0.188995 0.028750 0.000689 0.000002 129.134494 0.000239
0.190849 0.028183 0.000583 0.000002 84.462993 0.000143
0.192689 0.027567 0.000809 0.000002 429.328972 0.000963
0.193845 0.026489 0.000769 0.000002 163.815386 0.000356
0.196507 0.025461 0.000697 0.000002 0.000000 0.000000
0.197877 0.025201 0.000697 0.000002 298.923787 0.000562
0.199734 0.023929 0.000723 0.000002 542.480995 0.001177
0.200697 0.022793 0.000767 0.000002 89.323752 0.000197
0.203982 0.022532 0.000814 0.000002 95.702554 0.000181
0.208975 0.022050 0.000729 0.000002 0.000000 0.000000
0.213145 0.021400 0.000677 0.000002 0.000000 0.000000
0.215991 0.020799 0.000653 0.000002 0.000000 0.000000
0.221698 0.020352 0.000722 0.000002 14.009748 0.000028
0.223202 0.019279 0.000701 0.000002 0.000000 0.000000
0.224551 0.019167 0.000651 0.000002 35.493270 0.000070
0.229581 0.017375 0.000767 0.000002 0.000000 0.000000
0.230296 0.016083 0.000706 0.000002 0.000000 0.000000
0.235173 0.014674 0.000599 0.000002 -1.724772 -0.000003
0.235813 0.013497 0.000740 0.000002 0.000000 0.000000
0.242853 0.013839 0.000832 0.000002 0.000000 0.000000
0.244406 0.012630 0.000668 0.000002 0.000000 0.000000
0.243527 0.011484 0.000770 0.000002 0.000000 0.000000
0.247896 0.009240 0.000755 0.000002 388.056580 0.000893
0.253876 0.008753 0.000667 0.000002 0.000000 0.000000
0.259705 0.008558 0.000833 0.000002 369.927455 0.000818
0.262333 0.008001 0.000653 0.000002 435.478257 0.000812
0.262525 0.005632 0.000503 0.000002 0.000000 0.000000
0.264179 0.006067 0.000764 0.000002 1842.357586 0.004495
0.268546 0.006389 0.000769 0.000002 0.000000 0.000000
0.268976 0.005047 0.000629 0.000002 0.000000 0.000000
0.273597 0.004687 0.000690 0.000002 5.670077 0.000011
0.276488 0.008354 0.000776 0.000006 0.000000 0.000000
0.268433 0.010440 0.000693 0.000002 0.000000 0.000000
0.000626 0.035663 0.000626 0.000002 315.780039 0.000617
0.001999 0.035001 0.000658 0.000002 87.028058 0.000146
0.003282 0.035451 0.000702 0.000002 513.000854 0.000872
0.005744 0.034192 0.000626 0.000002 100.319709 0.000195
0.006682 0.035026 0.000629 0.000002 114.666073 0.000206
0.007841 0.034731 0.000567 0.000001 557.689117 0.000812
0.008906 0.035349 0.000664 0.000002 294.069136 0.000470
0.010147 0.034700 0.000709 0.000002 46.213315 0.000086
0.011413 0.035393 0.000735 0.000002 96.218965 0.000197
0.012837 0.035574 0.000699 0.000002 138.981853 0.000268
0.014217 0.035168 0.000733 0.000002 283.659983 0.000532
0.015325 0.036266 0.000823 0.000002 42.423920 0.000087
0.016841 0.036106 0.000702 0.000002 352.929176 0.000686
0.018274 0.035728 0.000714 0.000002 213.410637 0.000389
0.019718 0.035365 0.000775 0.000002 33.277828 0.000064
0.021198 0.035271 0.000707 0.000002 80.354492 0.000151
0.022536 0.035212 0.000622 0.000002 198.180570 0.000352
0.024272 0.035028 0.000829 0.000002 237.362067 0.000503
0.025788 0.035485 0.000665 0.000002 69.484478 0.000122
0.027171 0.035888 0.000730 0.000002 482.095424 0.000825
0.028538 0.035981 0.000640 0.000002 35.216342 0.000061
0.029748 0.035933 0.000571 0.000001 421.460573 0.000616
0.030886 0.035333 0.000715 0.000002 60.522980 0.000114
0.032634 0.034977 0.000765 0.000002 134.675011 0.000258
0.033926 0.034547 0.000597 0.000002 223.232011 0.000371
0.035286 0.034586 0.000717 0.000002 260.829527 0.000453
0.036172 0.035729 0.000729 0.000002 166.515975 0.000311
0.038332 0.035308 0.000781 0.000002 383.341271 0.000725
0.039385 0.034320 0.000664 0.000002 170.005535 0.000296
0.040822 0.034549 0.000792 0.000002 135.804866 0.000284
0.042387 0.034842 0.000800 0.000002 342.035862 0.000746
0.043776 0.034305 0.000689 0.000002 375.663540 0.000712
0.045151 0.034060 0.000708 0.000002 85.938878 0.000156
0.046429 0.034703 0.000718 0.000002 231.855454 0.000438
0.048678 0.034475 0.000732 0.000002 121.589750 0.000226
0.049927 0.034014 0.000600 0.000002 254.699887 0.000400
0.051093 0.034669 0.000738 0.000002 314.524118 0.000619
0.052487 0.034204 0.000732 0.000002 219.058603 0.000420
0.053932 0.034400 0.000727 0.000002 178.242948 0.000341
0.055380 0.034301 0.000725 0.000002 195.920545 0.000340
0.056815 0.034078 0.000728 0.000002 321.165973 0.000560
0.058229 0.034069 0.000687 0.000002 81.820322 0.000140
0.059638 0.034105 0.000723 0.000002 471.492784 0.000822
0.061086 0.034241 0.000732 0.000002 469.316339 0.000852
0.062532 0.034348 0.000719 0.000002 216.260085 0.000445
0.064653 0.035071 0.000662 0.000002 105.423948 0.000220
0.065883 0.034319 0.000772 0.000002 0.000000 0.000000
0.067290 0.034457 0.000627 0.000002 363.311395 0.000641
0.068604 0.034760 0.000722 0.000002 264.287587 0.000502
0.070115 0.034485 0.000813 0.000002 275.471380 0.000606
0.071625 0.034949 0.000675 0.000002 0.776536 0.000002
0.072760 0.034256 0.000654 0.000002 0.000000 0.000000
0.074110 0.034851 0.000726 0.000002 464.442292 0.000891
0.075602 0.035285 0.000704 0.000002 98.514670 0.000186
0.077061 0.035635 0.000796 0.000002 471.937215 0.000951
0.078259 0.034747 0.000695 0.000002 228.533583 0.000436
0.079633 0.035063 0.000715 0.000002 65.962959 0.000117
0.081024 0.035362 0.000709 0.000002 194.953319 0.000352
0.082540 0.035160 0.000659 0.000002 385.084492 0.000675
0.083719 0.034830 0.000566 0.000002 2.267163 0.000004
0.084853 0.034963 0.000576 0.000002 245.524781 0.000391
0.086092 0.034828 0.000670 0.000002 317.991445 0.000537
0.088569 0.035334 0.000740 0.000002 90.141563 0.000187
0.090044 0.035068 0.000758 0.000002 486.910313 0.001030
0.091623 0.034738 0.000855 0.000002 240.866609 0.000521
0.093036 0.034813 0.000561 0.000002 165.954259 0.000265
0.094221 0.034623 0.000639 0.000001 97.492199 0.000145
0.095451 0.034165 0.000673 0.000002 325.627039 0.000547
0.096747 0.034886 0.000810 0.000002 131.961127 0.000266
0.098158 0.034930 0.000602 0.000002 337.425467 0.000589
0.099428 0.034368 0.000787 0.000002 14.067542 0.000030
0.100970 0.034716 0.000794 0.000002 594.894846 0.001231
0.102421 0.034481 0.000676 0.000002 0.000000 0.000000
0.103390 0.035479 0.000714 0.000002 31.831658 0.000063
0.104937 0.035098 0.000701 0.000002 503.512479 0.000902
0.106281 0.034614 0.000728 0.000002 201.498991 0.000415
0.107975 0.034515 0.000639 0.000002 42.316944 0.000081
0.109307 0.034778 0.000718 0.000002 23.038821 0.000043
0.110816 0.034725 0.000713 0.000002 413.172379 0.000720
0.112216 0.034688 0.000687 0.000002 0.000000 0.000000
0.113651 0.034590 0.000735 0.000002 330.984610 0.000656
0.114981 0.035212 0.000734 0.000002 206.357272 0.000460
0.116477 0.035186 0.000763 0.000002 170.372350 0.000334
0.117955 0.035238 0.000717 0.000002 107.243093 0.000208
0.119423 0.035101 0.000748 0.000002 194.417490 0.000386
0.120990 0.035041 0.000820 0.000002 303.211302 0.000623
0.122366 0.034632 0.000616 0.000002 173.807580 0.000294
0.123765 0.034793 0.000631 0.000002 0.026600 0.000000
0.125113 0.034906 0.000722 0.000002 461.046061 0.000806
0.126526 0.035120 0.000706 0.000002 141.777494 0.000278
0.128239 0.035302 0.000723 0.000002 139.894297 0.000291
0.129962 0.035181 0.000701 0.000002 274.930497 0.000510
0.131150 0.035541 0.000541 0.000001 116.791216 0.000167
0.132433 0.035358 0.000756 0.000002 349.626188 0.000605
0.134434 0.035855 0.000722 0.000002 163.576219 0.000298
0.135776 0.035759 0.000620 0.000002 68.987458 0.000116
0.137064 0.035365 0.000727 0.000002 0.504395 0.000001
0.138438 0.035260 0.000651 0.000002 289.520217 0.000526
0.139730 0.035300 0.000641 0.000002 301.985612 0.000535
0.141289 0.034988 0.000621 0.000002 0.000000 0.000000
0.142551 0.034917 0.000638 0.000002 141.313743 0.000231
0.144368 0.034902 0.000658 0.000002 22.904197 0.000042
0.146032 0.034308 0.000647 0.000002 354.378980 0.000611
0.147380 0.033995 0.000736 0.000002 219.710779 0.000416
0.148872 0.033790 0.000770 0.000002 210.985321 0.000394
0.150294 0.033718 0.000654 0.000002 0.000000 0.000000
0.151739 0.033675 0.000624 0.000002 105.001983 0.000171
0.153588 0.033388 0.000660 0.000002 140.398314 0.000241
0.155001 0.033339 0.000755 0.000002 54.948871 0.000102
0.156521 0.033372 0.000766 0.000002 0.000000 0.000000
0.158161 0.032984 0.000732 0.000002 226.668355 0.000446
0.160331 0.031555 0.000784 0.000002 285.232415 0.000539
0.161873 0.031769 0.000773 0.000002 94.855077 0.000183
0.163404 0.031860 0.000762 0.000002 203.126406 0.000380
0.165594 0.031248 0.000580 0.000001 177.073903 0.000262
0.167566 0.031942 0.000567 0.000002 38.673338 0.000066
0.169299 0.031436 0.000707 0.000003 46.282594 0.000116
0.171567 0.031791 0.000787 0.000002 255.940146 0.000584
0.173111 0.031117 0.000627 0.000002 0.000000 0.000000
0.174433 0.030681 0.000729 0.000002 0.000000 0.000000
0.175868 0.030601 0.000707 0.000002 209.439921 0.000384
0.176895 0.031567 0.000703 0.000002 202.726357 0.000370
0.179247 0.030500 0.000622 0.000002 109.669049 0.000236
0.180774 0.031216 0.000614 0.000002 0.000000 0.000000
0.182014 0.030813 0.000668 0.000002 108.425881 0.000196
0.185091 0.030400 0.000740 0.000002 181.743841 0.000335
0.187627 0.029258 0.000768 0.000002 0.000000 0.000000
0.190309 0.029459 0.000803 0.000002 49.331074 0.000109
0.191923 0.028839 0.000676 0.000002 0.000000 0.000000
0.194282 0.027875 0.000685 0.000002 146.349575 0.000263
0.195336 0.026869 0.000770 0.000002 0.000000 0.000000
0.197404 0.026426 0.000617 0.000002 261.988301 0.000457
0.199263 0.025262 0.000691 0.000002 58.666342 0.000107
0.201645 0.023978 0.000752 0.000002 297.231976 0.000610
0.202781 0.023261 0.000592 0.000002 0.000000 0.000000
0.207546 0.022532 0.000747 0.000002 0.000000 0.000000
0.211883 0.022074 0.000753 0.000002 19.045326 0.000042
0.214891 0.021747 0.000800 0.000002 31.226784 0.000064
0.220360 0.020926 0.000688 0.000002 0.000000 0.000000
0.223208 0.020752 0.000767 0.000002 0.000000 0.000000
0.227796 0.019035 0.000561 0.000002 0.000000 0.000000
0.228105 0.017740 0.000754 0.000002 70.738890 0.000136
0.232442 0.017225 0.000613 0.000002 0.000000 0.000000
0.231618 0.016264 0.000629 0.000002 0.000000 0.000000
0.232445 0.015256 0.000675 0.000002 5.796553 0.000010
0.234373 0.013717 0.000648 0.000002 0.000000 0.000000
0.240252 0.013302 0.000758 0.000002 8.284027 0.000017
0.245632 0.013596 0.000714 0.000002 1160.602879 0.002064
0.245792 0.012127 0.000764 0.000002 4.674835 0.000009
0.246475 0.010759 0.000706 0.000002 0.000000 0.000000
0.252800 0.009407 0.000591 0.000002 22.929289 0.000038
0.258040 0.008776 0.000846 0.000002 935.676057 0.002277
0.261204 0.008628 0.000639 0.000002 610.876087 0.001155
0.263598 0.007441 0.000730 0.000002 916.278250 0.001910
0.265596 0.006700 0.000757 0.000002 0.000000 0.000000
0.267029 0.006413 0.000603 0.000002 0.000000 0.000000
0.273636 0.006010 0.000633 0.000002 158.054902 0.000296
0.272349 0.004314 0.000613 0.000002 0.000000 0.000000
0.275108 0.005343 0.000705 0.000002 0.000000 0.000000
0.270344 0.011066 0.000665 0.000000 0.000000 0.000000
0.000842 0.037115 0.000842 0.000002 231.369106 0.000537
0.002211 0.036301 0.000659 0.000002 0.000000 0.000000
0.004662 0.035852 0.000736 0.000002 101.137794 0.000220
0.006130 0.036366 0.000820 0.000002 166.543149 0.000349
0.007613 0.035988 0.000711 0.000002 386.457104 0.000661
0.008820 0.036704 0.000693 0.000002 365.871553 0.000659
0.010016 0.036052 0.000650 0.000002 14.577527 0.000025
0.011121 0.036760 0.000662 0.000002 99.660273 0.000177
0.012451 0.036893 0.000675 0.000002 57.097928 0.000107
0.013837 0.036538 0.000689 0.000002 340.238999 0.000634
0.015091 0.037714 0.000643 0.000002 61.533016 0.000105
0.016373 0.037401 0.000677 0.000002 212.049397 0.000364
0.017834 0.037005 0.000638 0.000002 31.768839 0.000053
0.019230 0.036721 0.000665 0.000002 255.820412 0.000430
0.020607 0.036570 0.000720 0.000002 1.157001 0.000002
0.022005 0.036408 0.000687 0.000002 229.953774 0.000364
0.023353 0.036217 0.000674 0.000002 157.236773 0.000266
0.024696 0.036466 0.000671 0.000002 71.799004 0.000130
0.026064 0.036882 0.000759 0.000002 214.296058 0.000382
0.027468 0.037232 0.000648 0.000002 215.497251 0.000402
0.029263 0.037098 0.000691 0.000002 188.319782 0.000325
0.030564 0.036825 0.000637 0.000002 148.792576 0.000229
0.031850 0.036395 0.000719 0.000002 46.767759 0.000090
0.033279 0.036306 0.000713 0.000002 241.276296 0.000493
0.034459 0.035657 0.000635 0.000002 257.717832 0.000440
0.036319 0.037054 0.000605 0.000001 376.481120 0.000537
0.037432 0.036441 0.000666 0.000002 6.356983 0.000011
0.038843 0.036791 0.000788 0.000002 405.088888 0.000845
0.039785 0.035631 0.000707 0.000002 16.794329 0.000034
0.041204 0.036073 0.000780 0.000002 42.949748 0.000089
0.042596 0.036250 0.000623 0.000002 462.575578 0.000833
0.043913 0.035767 0.000780 0.000002 238.666140 0.000474
0.045271 0.035392 0.000630 0.000002 177.681815 0.000302
0.047633 0.035466 0.000709 0.000002 210.671242 0.000394
0.048819 0.036080 0.000627 0.000002 147.394216 0.000248
0.049821 0.035270 0.000661 0.000002 77.749367 0.000129
0.050921 0.036132 0.000736 0.000002 245.383155 0.000421
0.052238 0.035598 0.000685 0.000002 170.651148 0.000307
0.053603 0.035781 0.000692 0.000002 146.267158 0.000250
0.054935 0.035603 0.000652 0.000002 45.678683 0.000075
0.056281 0.035396 0.000694 0.000002 442.552339 0.000739
0.057607 0.035242 0.000641 0.000002 36.281288 0.000062
0.058933 0.035327 0.000688 0.000002 248.587916 0.000447
0.060247 0.035305 0.000624 0.000002 390.710564 0.000699
0.061652 0.035702 0.000835 0.000002 264.003282 0.000573
0.063304 0.035677 0.000817 0.000002 226.364162 0.000507
0.065866 0.035928 0.000824 0.000002 75.881029 0.000166
0.067445 0.035834 0.000759 0.000002 261.806623 0.000515
0.068822 0.036110 0.000645 0.000002 236.747383 0.000423
0.070243 0.036069 0.000776 0.000002 173.620827 0.000352
0.071610 0.036323 0.000615 0.000002 156.805895 0.000260
0.072966 0.035879 0.000813 0.000002 9.256822 0.000020
0.074514 0.036318 0.000796 0.000002 353.930731 0.000731
0.076000 0.036767 0.000756 0.000002 195.778101 0.000405
0.077537 0.037099 0.000744 0.000002 247.480937 0.000487
0.078596 0.036108 0.000707 0.000002 81.736410 0.000146
0.079959 0.036433 0.000694 0.000002 20.579785 0.000036
0.081322 0.036743 0.000705 0.000002 169.110194 0.000322
0.082770 0.036554 0.000755 0.000002 282.593555 0.000556
0.084277 0.036204 0.000793 0.000002 137.765499 0.000267
0.085796 0.036193 0.000727 0.000002 154.694281 0.000278
0.087176 0.035649 0.000689 0.000002 50.919570 0.000094
0.089522 0.036477 0.000744 0.000002 386.166885 0.000736
0.091015 0.036227 0.000754 0.000002 61.093826 0.000124
0.092567 0.036052 0.000764 0.000002 367.832913 0.000705
0.093998 0.035916 0.000673 0.000002 116.768965 0.000197
0.095196 0.035432 0.000620 0.000002 85.747199 0.000142
0.096196 0.036292 0.000700 0.000002 179.718891 0.000348
0.097627 0.036160 0.000738 0.000002 234.973926 0.000435
0.099134 0.035919 0.000788 0.000002 3.404693 0.000007
0.100611 0.036178 0.000711 0.000002 420.504002 0.000810
0.102003 0.035812 0.000712 0.000002 97.843662 0.000182
0.104456 0.036427 0.000713 0.000002 280.957933 0.000517
0.105817 0.036149 0.000670 0.000002 173.414442 0.000331
0.107281 0.035811 0.000832 0.000002 205.391865 0.000442
0.108775 0.036078 0.000686 0.000002 33.035806 0.000064
0.110181 0.036010 0.000721 0.000002 250.991465 0.000459
0.111565 0.035887 0.000669 0.000002 101.467633 0.000187
0.112971 0.035896 0.000737 0.000002 253.980285 0.000525
0.114168 0.036807 0.000767 0.000002 58.649346 0.000126
0.115723 0.036563 0.000808 0.000002 324.065312 0.000653
0.117245 0.036482 0.000716 0.000002 16.497619 0.000033
0.118784 0.036537 0.000824 0.000002 201.697224 0.000404
0.120209 0.036260 0.000628 0.000002 0.000000 0.000000
0.121619 0.036479 0.000750 0.000002 260.387753 0.000511
0.122920 0.035830 0.000703 0.000002 80.863495 0.000143
0.124258 0.035968 0.000642 0.000002 260.909631 0.000441
0.125639 0.036315 0.000782 0.000002 246.130577 0.000496
0.127244 0.036375 0.000740 0.000002 93.675187 0.000185
0.128887 0.036621 0.000747 0.000002 49.806535 0.000102
0.130375 0.036563 0.000742 0.000002 327.682725 0.000571
0.131794 0.036642 0.000679 0.000002 124.171490 0.000201
0.133225 0.036541 0.000669 0.000002 169.668719 0.000316
0.135282 0.036897 0.000621 0.000002 184.654178 0.000303
0.136650 0.036813 0.000750 0.000002 47.359719 0.000083
0.138050 0.036532 0.000679 0.000002 194.325849 0.000340
0.139411 0.036495 0.000595 0.000001 253.507861 0.000377
0.140727 0.036189 0.000695 0.000002 55.524950 0.000089
0.142070 0.036113 0.000650 0.000002 58.923253 0.000095
0.143453 0.035854 0.000663 0.000002 58.993763 0.000100
0.145523 0.035471 0.000623 0.000002 233.089176 0.000377
0.146900 0.035397 0.000745 0.000002 272.703718 0.000469
0.148292 0.035113 0.000674 0.000002 0.000000 0.000000
0.149773 0.035083 0.000806 0.000002 234.345472 0.000453
0.151092 0.034681 0.000573 0.000002 52.808163 0.000086
0.152780 0.034447 0.000672 0.000002 65.145521 0.000117
0.154242 0.034597 0.000714 0.000002 40.594281 0.000073
0.155722 0.034602 0.000699 0.000002 37.257232 0.000071
0.157630 0.034270 0.000660 0.000002 88.958697 0.000164
0.159663 0.032816 0.000643 0.000002 245.146961 0.000437
0.160950 0.032830 0.000633 0.000002 168.028253 0.000308
0.162577 0.033026 0.000669 0.000002 64.074360 0.000121
0.163912 0.033193 0.000665 0.000002 371.233509 0.000709
0.164789 0.032195 0.000663 0.000002 98.445127 0.000166
0.166344 0.032296 0.000705 0.000002 36.815781 0.000060
0.168651 0.032850 0.000849 0.000002 44.175498 0.000099
0.170857 0.033014 0.000628 0.000002 125.138674 0.000296
0.172807 0.032741 0.000775 0.000002 35.234057 0.000077
0.174151 0.032093 0.000710 0.000002 0.000000 0.000000
0.175548 0.031961 0.000690 0.000002 149.768774 0.000263
0.177975 0.032274 0.000587 0.000002 50.787521 0.000101
0.179252 0.031873 0.000751 0.000002 51.692211 0.000096
0.181823 0.032152 0.000685 0.000002 78.021113 0.000134
0.183171 0.031738 0.000726 0.000002 194.973022 0.000374
0.186494 0.030178 0.000663 0.000002 0.000000 0.000000
0.188849 0.030215 0.000784 0.000002 42.359521 0.000092
0.192479 0.030028 0.000636 0.000002 367.852446 0.000640
0.193361 0.028967 0.000744 0.000002 199.349764 0.000368
0.195503 0.028217 0.000583 0.000002 206.561374 0.000326
0.196678 0.027587 0.000752 0.000002 109.018744 0.000218
0.198665 0.026457 0.000645 0.000002 28.610579 0.000049
0.200640 0.025033 0.000705 0.000002 597.499691 0.001148
0.205025 0.023617 0.000679 0.000002 0.000000 0.000000
0.206093 0.022717 0.000716 0.000002 0.000000 0.000000
0.208657 0.023436 0.000686 0.000002 0.000000 0.000000
0.210490 0.022781 0.000806 0.000002 0.000000 0.000000
0.213690 0.022693 0.000725 0.000002 0.000000 0.000000
0.217544 0.020706 0.000725 0.000002 3.582380 0.000007
0.223103 0.022235 0.000710 0.000002 0.000000 0.000000
0.226056 0.020609 0.000686 0.000002 0.000000 0.000000
0.231058 0.017483 0.000713 0.000002 0.000000 0.000000
0.233323 0.016266 0.000663 0.000002 36.776027 0.000065
0.233976 0.015102 0.000672 0.000002 0.000000 0.000000
0.236477 0.014888 0.000723 0.000002 35.834283 0.000066
0.237533 0.014098 0.000595 0.000002 0.000000 0.000000
0.238849 0.013842 0.000745 0.000002 0.000000 0.000000
0.244297 0.013915 0.000614 0.000002 0.000000 0.000000
0.246973 0.013143 0.000607 0.000002 0.000000 0.000000
0.247175 0.011917 0.000635 0.000002 169.961252 0.000286
0.251464 0.009639 0.000764 0.000002 0.000000 0.000000
0.256769 0.009739 0.000750 0.000002 84.078176 0.000200
0.262564 0.009525 0.000704 0.000002 60.568052 0.000118
0.263769 0.008842 0.000682 0.000002 0.000000 0.000000
0.267798 0.007591 0.000647 0.000002 -0.533552 -0.000001
0.270004 0.007626 0.000851 0.000002 0.000000 0.000000
0.270045 0.006000 0.000774 0.000002 0.000000 0.000000
0.277946 0.007805 0.000778 0.000007 0.000000 0.000000
0.273476 0.010021 0.000701 0.000000 0.000000 0.000000
0.237665 0.018459 0.000705 0.000000 0.000000 0.000000
0.000721 0.038673 0.000721 0.000002 121.510423 0.000260
0.002295 0.037885 0.000802 0.000002 178.803135 0.000398
0.003497 0.036893 0.000756 0.000002 218.380863 0.000411
0.004905 0.037269 0.000702 0.000002 98.397072 0.000180
0.006159 0.037876 0.000691 0.000002 92.624996 0.000158
0.007462 0.037391 0.000700 0.000002 146.736130 0.000269
0.009755 0.037697 0.000672 0.000002 302.631486 0.000572
0.011041 0.038093 0.000673 0.000002 188.221743 0.000334
0.012401 0.038266 0.000699 0.000002 194.034079 0.000343
0.013762 0.037928 0.000704 0.000002 217.760178 0.000377
0.014656 0.038937 0.000645 0.000002 110.028607 0.000187
0.015979 0.038716 0.000696 0.000002 108.922045 0.000176
0.017307 0.038377 0.000674 0.000002 154.930801 0.000248
0.018544 0.038031 0.000610 0.000002 2.819289 0.000004
0.019748 0.037878 0.000603 0.000002 160.050267 0.000252
0.021618 0.037666 0.000628 0.000002 109.467546 0.000206
0.022848 0.037416 0.000627 0.000002 216.049406 0.000342
0.024110 0.037621 0.000624 0.000002 50.445570 0.000082
0.025438 0.038073 0.000586 0.000002 138.113387 0.000217
0.026647 0.038214 0.000632 0.000002 95.050502 0.000159
0.028413 0.038277 0.000762 0.000002 207.564337 0.000441
0.030192 0.038055 0.000643 0.000002 29.219826 0.000050
0.031509 0.037775 0.000703 0.000002 201.037111 0.000356
0.032951 0.037721 0.000740 0.000002 135.452082 0.000261
0.034370 0.037855 0.000685 0.000002 332.015120 0.000565
0.035110 0.036755 0.000641 0.000002 0.000000 0.000000
0.035592 0.037938 0.000540 0.000001 196.759219 0.000279
0.037349 0.037733 0.000629 0.000002 65.334074 0.000113
0.038547 0.038208 0.000660 0.000002 252.067301 0.000490
0.040328 0.037416 0.000824 0.000002 0.014451 0.000000
0.041901 0.037434 0.000749 0.000002 324.608489 0.000641
0.043553 0.037312 0.000807 0.000002 179.182522 0.000370
0.045070 0.036738 0.000731 0.000002 228.839255 0.000419
0.046368 0.036087 0.000668 0.000002 0.000000 0.000000
0.047507 0.036870 0.000701 0.000002 109.348553 0.000181
0.048655 0.037472 0.000595 0.000002 29.248473 0.000047
0.049780 0.036928 0.000655 0.000002 284.616620 0.000451
0.050938 0.037508 0.000639 0.000002 157.929582 0.000261
0.052052 0.036900 0.000630 0.000002 204.366869 0.000318
0.053256 0.037003 0.000579 0.000002 219.686056 0.000342
0.054460 0.036806 0.000641 0.000001 3.221539 0.000005
0.055774 0.036674 0.000680 0.000002 373.662122 0.000603
0.057158 0.036518 0.000712 0.000002 0.000000 0.000000
0.058732 0.036743 0.000743 0.000002 163.008062 0.000354
0.060332 0.036784 0.000857 0.000002 247.224598 0.000530
0.061767 0.037158 0.000626 0.000002 258.461199 0.000452
0.063105 0.037193 0.000712 0.000002 111.115667 0.000211
0.064492 0.036708 0.000756 0.000002 53.580306 0.000108
0.066638 0.037166 0.000635 0.000002 22.122543 0.000039
0.068002 0.037214 0.000730 0.000002 353.420890 0.000601
0.069438 0.037318 0.000710 0.000002 203.153537 0.000357
0.070864 0.037430 0.000721 0.000002 181.801957 0.000313
0.072177 0.037389 0.000593 0.000002 0.019826 0.000000
0.073463 0.037373 0.000693 0.000002 117.102963 0.000233
0.074896 0.037875 0.000808 0.000002 214.399831 0.000445
0.076512 0.038176 0.000742 0.000002 184.768719 0.000371
0.078215 0.038395 0.000718 0.000002 164.917818 0.000360
0.079032 0.037349 0.000609 0.000002 9.231039 0.000016
0.080342 0.037900 0.000812 0.000002 52.408033 0.000113
0.082153 0.037844 0.000674 0.000002 254.520426 0.000505
0.083769 0.037592 0.000686 0.000002 225.401895 0.000406
0.085140 0.037451 0.000692 0.000002 43.074244 0.000077
0.086853 0.036927 0.000561 0.000002 88.093588 0.000148
0.088093 0.036694 0.000701 0.000002 152.189097 0.000263
0.089019 0.037861 0.000728 0.000002 257.170252 0.000476
0.090464 0.037620 0.000737 0.000002 102.281094 0.000189
0.091925 0.037412 0.000739 0.000002 242.961643 0.000474
0.093494 0.037237 0.000740 0.000002 167.937582 0.000325
0.094953 0.037011 0.000736 0.000002 0.000000 0.000000
0.096998 0.037621 0.000853 0.000002 258.271287 0.000604
0.098440 0.037264 0.000633 0.000002 0.001214 0.000000
0.099747 0.037260 0.000674 0.000002 169.837855 0.000304
0.101214 0.037388 0.000641 0.000002 273.347795 0.000471
0.102468 0.037090 0.000647 0.000002 23.051776 0.000042
0.103707 0.037633 0.000706 0.000002 220.654605 0.000396
0.105038 0.037631 0.000624 0.000002 120.348461 0.000191
0.106391 0.037440 0.000743 0.000002 127.853231 0.000248
0.107936 0.037313 0.000807 0.000002 168.553738 0.000359
0.109508 0.037336 0.000765 0.000002 147.906440 0.000293
0.111042 0.037230 0.000772 0.000002 116.099299 0.000235
0.112674 0.037474 0.000869 0.000002 137.791339 0.000308
0.114000 0.038206 0.000642 0.000002 34.919243 0.000063
0.115201 0.037874 0.000604 0.000002 163.342825 0.000289
0.116639 0.037780 0.000716 0.000002 154.477712 0.000309
0.118101 0.037961 0.000756 0.000002 103.975985 0.000222
0.119764 0.037584 0.000610 0.000002 51.188910 0.000090
0.121051 0.037808 0.000695 0.000002 140.801262 0.000246
0.122367 0.037642 0.000632 0.000002 228.590707 0.000401
0.123531 0.037059 0.000670 0.000002 258.173337 0.000453
0.124847 0.037656 0.000775 0.000002 67.140284 0.000144
0.126433 0.037665 0.000784 0.000002 199.667759 0.000396
0.127893 0.037608 0.000654 0.000002 0.000000 0.000000
0.129685 0.037879 0.000743 0.000002 239.403137 0.000484
0.131081 0.037708 0.000603 0.000002 43.101205 0.000073
0.132602 0.037762 0.000702 0.000002 113.717805 0.000206
0.134115 0.037712 0.000802 0.000002 200.779067 0.000409
0.135910 0.038011 0.000658 0.000002 73.551805 0.000127
0.137500 0.037949 0.000669 0.000002 19.492610 0.000033
0.138844 0.037664 0.000704 0.000002 371.140301 0.000602
0.140174 0.037344 0.000546 0.000002 8.199625 0.000013
0.141524 0.037466 0.000810 0.000002 41.958046 0.000078
0.142955 0.037086 0.000666 0.000002 0.000000 0.000000
0.144680 0.036554 0.000749 0.000002 194.027014 0.000398
0.146153 0.036665 0.000727 0.000002 184.716064 0.000350
0.147737 0.036413 0.000571 0.000002 112.577539 0.000192
0.148994 0.036357 0.000687 0.000002 100.425757 0.000202
0.150740 0.036302 0.000750 0.000002 56.659281 0.000117
0.151999 0.035577 0.000702 0.000002 139.999464 0.000238
0.153450 0.035860 0.000776 0.000002 0.000000 0.000000
0.154991 0.035719 0.000635 0.000002 43.814376 0.000078
0.156882 0.035452 0.000739 0.000002 62.517977 0.000122
0.159141 0.034166 0.000804 0.000002 270.834997 0.000521
0.160671 0.034160 0.000726 0.000002 114.191269 0.000203
0.162040 0.034225 0.000645 0.000002 57.347646 0.000102
0.163677 0.034676 0.000836 0.000002 171.020370 0.000374
0.165460 0.033336 0.000661 0.000002 136.827449 0.000252
0.167063 0.033506 0.000702 0.000002 0.000000 0.000000
0.168162 0.034226 0.000612 0.000002 0.000000 0.000000
0.169829 0.033893 0.000725 0.000002 201.286824 0.000416
0.171871 0.033955 0.000756 0.000002 54.449376 0.000105
0.174052 0.033462 0.000663 0.000002 8.134847 0.000014
0.175305 0.033238 0.000610 0.000002 139.437509 0.000231
0.176571 0.032927 0.000694 0.000002 49.989244 0.000090
0.179150 0.033168 0.000547 0.000002 0.000000 0.000000
0.180524 0.032465 0.000651 0.000002 53.157839 0.000091
0.182998 0.033084 0.000632 0.000002 312.421361 0.000590
0.186047 0.031425 0.000662 0.000002 0.000000 0.000000
0.187584 0.031045 0.000729 0.000002 30.032772 0.000060
0.191265 0.030661 0.000734 0.000002 271.907072 0.000559
0.193871 0.030440 0.000815 0.000002 0.000000 0.000000
0.194748 0.029209 0.000664 0.000002 47.555563 0.000083
0.196532 0.029113 0.000782 0.000002 36.757970 0.000075
0.198192 0.027798 0.000777 0.000002 0.000000 0.000000
0.200139 0.026323 0.000679 0.000002 503.040206 0.000877
0.203751 0.024078 0.000675 0.000002 0.000000 0.000000
0.206472 0.024132 0.000747 0.000002 0.000000 0.000000
0.207805 0.024390 0.000592 0.000002 0.000000 0.000000
0.211124 0.024232 0.000758 0.000002 0.192352 0.000000
0.212433 0.023477 0.000754 0.000002 20.140872 0.000045
0.216487 0.022098 0.000736 0.000002 0.000000 0.000000
0.221681 0.021696 0.000622 0.000002 0.000000 0.000000
0.224616 0.020457 0.000640 0.000002 0.000000 0.000000
0.230511 0.018743 0.000655 0.000002 0.000000 0.000000
0.234010 0.017312 0.000588 0.000002 4.239429 0.000008
0.237213 0.016133 0.000723 0.000002 71.379387 0.000142
0.239310 0.016293 0.000704 0.000002 21.698682 0.000042
0.238349 0.015229 0.000729 0.000002 0.000000 0.000000
0.239957 0.014638 0.000610 0.000002 191.939178 0.000352
0.241336 0.014391 0.000778 0.000002 0.000000 0.000000
0.248362 0.013678 0.000786 0.000002 347.195694 0.000736
0.247951 0.010756 0.000761 0.000002 351.719137 0.000828
0.249956 0.009889 0.000737 0.000002 0.000000 0.000000
0.254172 0.010157 0.000767 0.000002 11.761425 0.000025
0.261219 0.009983 0.000717 0.000002 0.813058 0.000001
0.264851 0.009596 0.000635 0.000002 19.893507 0.000033
0.264968 0.008070 0.000743 0.000002 0.000000 0.000000
0.270845 0.008861 0.000631 0.000002 5.505862 0.000011
0.271485 0.007004 0.000750 0.000002 102.910434 0.000239
0.272067 0.005638 0.000735 0.000002 0.000000 0.000000
0.274686 0.006790 0.000676 0.000002 0.000000 0.000000
0.247549 0.017775 0.000819 0.000000 0.000000 0.000000
0.000693 0.040087 0.000693 0.000002 65.946615 0.000121
0.001995 0.039406 0.000748 0.000002 113.159004 0.000221
0.003401 0.039558 0.000666 0.000002 248.841578 0.000478
0.003748 0.038283 0.000657 0.000002 5.970296 0.000011
0.005028 0.038636 0.000671 0.000002 93.397581 0.000156
0.007188 0.038671 0.000610 0.000002 256.489025 0.000413
0.008514 0.038385 0.000747 0.000002 59.247604 0.000111
0.009992 0.039181 0.000831 0.000002 134.978748 0.000265
0.011539 0.039407 0.000732 0.000002 188.050243 0.000352
0.013358 0.039231 0.000661 0.000002 185.647242 0.000335
0.015470 0.040066 0.000746 0.000002 108.442972 0.000212
0.016942 0.039630 0.000631 0.000002 0.000000 0.000000
0.018308 0.039347 0.000720 0.000002 177.330576 0.000285
0.019572 0.039047 0.000580 0.000001 41.821417 0.000061
0.020765 0.038654 0.000677 0.000002 204.800049 0.000332
0.021974 0.039416 0.000753 0.000002 427.583152 0.000855
0.023289 0.038709 0.000740 0.000002 3.668135 0.000007
0.024586 0.038845 0.000564 0.000001 200.728783 0.000290
0.025842 0.039419 0.000817 0.000002 78.261563 0.000145
0.027386 0.039355 0.000728 0.000002 130.266943 0.000267
0.029549 0.039345 0.000798 0.000002 139.997181 0.000299
0.031041 0.039111 0.000712 0.000002 172.352818 0.000331
0.032457 0.039079 0.000704 0.000002 112.368698 0.000210
0.033743 0.038961 0.000587 0.000002 81.120264 0.000136
0.035057 0.039050 0.000694 0.000002 184.788805 0.000317
0.036521 0.038861 0.000770 0.000002 30.145966 0.000059
0.037904 0.039439 0.000729 0.000002 110.271964 0.000242
0.039675 0.039075 0.000763 0.000002 211.435048 0.000466
0.041176 0.038767 0.000769 0.000002 188.497786 0.000383
0.042738 0.038613 0.000697 0.000002 0.018918 0.000000
0.044056 0.038649 0.000622 0.000002 201.029858 0.000312
0.045190 0.038101 0.000637 0.000002 114.362712 0.000178
0.046273 0.037409 0.000646 0.000002 37.996578 0.000059
0.047298 0.038207 0.000653 0.000002 100.569079 0.000164
0.048533 0.038764 0.000702 0.000002 107.281672 0.000202
0.049846 0.038279 0.000697 0.000002 313.825083 0.000539
0.051103 0.038942 0.000724 0.000002 26.415053 0.000054
0.052405 0.038239 0.000755 0.000002 110.154482 0.000222
0.053922 0.038168 0.000764 0.000002 233.172596 0.000452
0.055199 0.037784 0.000570 0.000002 62.650418 0.000097
0.056570 0.037933 0.000810 0.000002 152.517174 0.000296
0.058092 0.038056 0.000718 0.000002 145.450642 0.000284
0.059548 0.038178 0.000743 0.000002 143.231567 0.000283
0.060963 0.038178 0.000673 0.000002 101.891923 0.000179
0.062323 0.038281 0.000627 0.000002 261.610416 0.000433
0.064178 0.038170 0.000739 0.000002 79.580182 0.000156
0.065477 0.037700 0.000643 0.000002 79.125804 0.000151
0.067279 0.038336 0.000605 0.000002 152.642687 0.000246
0.068587 0.038490 0.000673 0.000002 112.765087 0.000178
0.069931 0.038613 0.000677 0.000002 159.101886 0.000260
0.071259 0.038751 0.000659 0.000002 158.095883 0.000275
0.072732 0.038693 0.000816 0.000002 65.018534 0.000127
0.074136 0.039122 0.000652 0.000002 109.684833 0.000204
0.075539 0.039232 0.000694 0.000002 179.239791 0.000320
0.077020 0.039500 0.000677 0.000002 81.396992 0.000148
0.078458 0.039913 0.000820 0.000002 98.698113 0.000197
0.079892 0.039361 0.000717 0.000002 1.489595 0.000003
0.081409 0.039135 0.000817 0.000002 131.150441 0.000293
0.083135 0.038896 0.000765 0.000002 240.584826 0.000481
0.084562 0.038627 0.000619 0.000002 27.758236 0.000049
0.086161 0.038349 0.000668 0.000002 42.421122 0.000080
0.087548 0.038042 0.000753 0.000002 218.678748 0.000400
0.088523 0.039219 0.000718 0.000002 182.367554 0.000339
0.089933 0.038939 0.000685 0.000002 49.946947 0.000086
0.091365 0.038735 0.000697 0.000002 61.561424 0.000107
0.092852 0.038621 0.000785 0.000002 240.965734 0.000483
0.094414 0.038381 0.000728 0.000002 26.386705 0.000054
0.095856 0.038763 0.000764 0.000002 76.689397 0.000179
0.097744 0.039070 0.000778 0.000002 224.331522 0.000472
0.099056 0.038428 0.000683 0.000002 70.745111 0.000129
0.100560 0.038729 0.000851 0.000002 133.433948 0.000289
0.102075 0.038269 0.000591 0.000002 80.257653 0.000130
0.103192 0.038971 0.000728 0.000002 313.577241 0.000582
0.104494 0.038725 0.000598 0.000002 40.650334 0.000064
0.105759 0.038681 0.000650 0.000002 64.633163 0.000112
0.107208 0.038694 0.000754 0.000002 146.902904 0.000295
0.108744 0.038670 0.000773 0.000002 105.958490 0.000218
0.110233 0.038629 0.000717 0.000002 83.468209 0.000161
0.111594 0.038537 0.000646 0.000002 155.179891 0.000289
0.112901 0.039106 0.000779 0.000002 110.397735 0.000235
0.114977 0.039173 0.000714 0.000002 103.772578 0.000194
0.116461 0.039258 0.000773 0.000002 110.367506 0.000238
0.118084 0.039502 0.000785 0.000002 38.374042 0.000084
0.119256 0.038698 0.000614 0.000002 80.966004 0.000132
0.120508 0.039028 0.000640 0.000002 67.924801 0.000118
0.121940 0.039000 0.000792 0.000002 132.545606 0.000271
0.123527 0.038547 0.000818 0.000002 191.280558 0.000426
0.125624 0.038905 0.000696 0.000002 53.013765 0.000102
0.126990 0.039014 0.000674 0.000002 133.655451 0.000244
0.128526 0.038988 0.000861 0.000002 82.733827 0.000181
0.130333 0.039160 0.000692 0.000002 84.738143 0.000162
0.131714 0.038855 0.000707 0.000002 50.891041 0.000093
0.133300 0.039079 0.000789 0.000002 158.666317 0.000328
0.134948 0.038919 0.000664 0.000002 53.492597 0.000099
0.136736 0.039005 0.000634 0.000002 57.961715 0.000099
0.138385 0.038881 0.000597 0.000002 194.325315 0.000319
0.139948 0.038641 0.000770 0.000002 108.099591 0.000197
0.141304 0.038862 0.000603 0.000002 37.943557 0.000066
0.142647 0.038577 0.000769 0.000002 114.990679 0.000221
0.144108 0.037996 0.000803 0.000002 83.768999 0.000182
0.145666 0.038068 0.000758 0.000002 88.376638 0.000193
0.147260 0.037651 0.000756 0.000002 112.911296 0.000215
0.148717 0.037718 0.000702 0.000002 65.532554 0.000128
0.150549 0.037796 0.000756 0.000002 18.136901 0.000038
0.151931 0.036831 0.000554 0.000002 140.036786 0.000226
0.153111 0.037331 0.000727 0.000002 19.199860 0.000034
0.154495 0.036963 0.000705 0.000002 16.375474 0.000030
0.156011 0.036682 0.000768 0.000002 36.179623 0.000075
0.158333 0.035394 0.000666 0.000002 197.452156 0.000347
0.159982 0.035334 0.000635 0.000002 113.154315 0.000188
0.161290 0.035365 0.000629 0.000001 47.756926 0.000071
0.162464 0.035338 0.000546 0.000001 181.019163 0.000258
0.163370 0.036150 0.000670 0.000002 113.406296 0.000214
0.165145 0.034593 0.000635 0.000002 120.339218 0.000227
0.166449 0.034742 0.000678 0.000002 17.559547 0.000035
0.169186 0.035303 0.000825 0.000002 113.189884 0.000234
0.170785 0.034859 0.000634 0.000002 0.000000 0.000000
0.173218 0.034575 0.000727 0.000002 19.413620 0.000035
0.174952 0.034483 0.000685 0.000002 112.203376 0.000185
0.176438 0.034415 0.000799 0.000002 0.000000 0.000000
0.177881 0.033669 0.000811 0.000002 0.000000 0.000000
0.180245 0.033788 0.000701 0.000002 0.000000 0.000000
0.181699 0.033596 0.000765 0.000002 24.067101 0.000045
0.184571 0.031715 0.000674 0.000002 81.417184 0.000173
0.187104 0.032548 0.000849 0.000002 2.767944 0.000006
0.189921 0.031345 0.000774 0.000002 0.000000 0.000000
0.192586 0.031400 0.000740 0.000002 0.000000 0.000000
0.195605 0.030218 0.000660 0.000002 28.098415 0.000052
0.198007 0.029537 0.000753 0.000002 381.638095 0.000841
0.199228 0.028824 0.000661 0.000002 639.475738 0.001175
0.199615 0.027558 0.000664 0.000002 0.000000 0.000000
0.202708 0.024865 0.000628 0.000002 0.000000 0.000000
0.205278 0.025008 0.000734 0.000002 0.000000 0.000000
0.208830 0.025251 0.000711 0.000002 0.000000 0.000000
0.209757 0.024124 0.000611 0.000002 27.382084 0.000048
0.212709 0.024968 0.000762 0.000002 11.891357 0.000024
0.215347 0.023185 0.000709 0.000002 0.000000 0.000000
0.218995 0.021281 0.000721 0.000002 0.000000 0.000000
0.225224 0.021739 0.000716 0.000002 0.000000 0.000000
0.229107 0.018868 0.000754 0.000002 0.000000 0.000000
0.233242 0.018346 0.000701 0.000002 0.000000 0.000000
0.235502 0.015959 0.000725 0.000002 79.207756 0.000180
0.241003 0.017142 0.000765 0.000002 677.633266 0.001546
0.240591 0.015759 0.000678 0.000002 0.000000 0.000000
0.242070 0.015746 0.000762 0.000002 0.000000 0.000000
0.243493 0.015282 0.000730 0.000002 0.000000 0.000000
0.245257 0.014909 0.000652 0.000002 0.000000 0.000000
0.248554 0.012148 0.000756 0.000002 0.000000 0.000000
0.252766 0.010756 0.000758 0.000002 0.000000 0.000000
0.254833 0.011497 0.000721 0.000002 174.407471 0.000370
0.258591 0.010114 0.000602 0.000002 0.000000 0.000000
0.263785 0.010577 0.000814 0.000002 0.000000 0.000000
0.266032 0.009054 0.000661 0.000002 -0.023578 -0.000000
0.266512 0.007823 0.000660 0.000002 0.000000 0.000000
0.272130 0.008382 0.000742 0.000002 0.000000 0.000000
0.276130 0.006773 0.000731 0.000002 0.000000 0.000000
0.241859 0.022305 0.000710 0.000000 0.000000 0.000000
0.000731 0.041511 0.000731 0.000002 94.198736 0.000172
0.001809 0.040736 0.000596 0.000002 42.915994 0.000068
0.003158 0.040979 0.000776 0.000002 86.570471 0.000176
0.004703 0.039969 0.000700 0.000002 41.830186 0.000080
0.006133 0.039309 0.000623 0.000002 11.661144 0.000019
0.007318 0.040050 0.000775 0.000002 179.494246 0.000318
0.008646 0.039719 0.000594 0.000002 23.821080 0.000039
0.009518 0.040521 0.000591 0.000002 134.873308 0.000209
0.010762 0.040555 0.000654 0.000002 73.399421 0.000133
0.012509 0.040381 0.000643 0.000002 92.079475 0.000165
0.013975 0.040599 0.000840 0.000002 141.920000 0.000280
0.016571 0.041103 0.000767 0.000002 123.651101 0.000239
0.017907 0.040651 0.000644 0.000002 60.938735 0.000114
0.019340 0.040270 0.000665 0.000002 0.000000 0.000000
0.020637 0.039977 0.000653 0.000002 31.570604 0.000052
0.021695 0.040880 0.000737 0.000002 233.766829 0.000433
0.023112 0.040340 0.000712 0.000002 31.332953 0.000058
0.024388 0.040001 0.000609 0.000002 125.885900 0.000198
0.025349 0.040773 0.000624 0.000002 10.369377 0.000017
0.026759 0.040734 0.000787 0.000002 80.722000 0.000160
0.028423 0.040477 0.000799 0.000002 74.540908 0.000162
0.029854 0.040774 0.000663 0.000002 69.524152 0.000132
0.031266 0.040571 0.000764 0.000002 108.712592 0.000213
0.032711 0.040445 0.000685 0.000002 72.904930 0.000145
0.034195 0.040280 0.000808 0.000002 136.181241 0.000279
0.035884 0.040307 0.000811 0.000002 36.972161 0.000086
0.037399 0.040898 0.000815 0.000002 96.803619 0.000220
0.039027 0.040551 0.000850 0.000002 96.867952 0.000221
0.040677 0.040178 0.000728 0.000002 102.107866 0.000200
0.042134 0.039880 0.000700 0.000002 158.637689 0.000277
0.043455 0.039746 0.000629 0.000002 80.027708 0.000123
0.045076 0.039347 0.000613 0.000002 106.462958 0.000160
0.046203 0.038788 0.000587 0.000002 47.909456 0.000075
0.047304 0.039708 0.000848 0.000002 141.579750 0.000286
0.048591 0.040436 0.000630 0.000002 71.960496 0.000139
0.049836 0.039761 0.000786 0.000002 182.809048 0.000366
0.051241 0.040515 0.000810 0.000002 36.978186 0.000081
0.052675 0.039774 0.000804 0.000002 38.079347 0.000087
0.054179 0.039618 0.000708 0.000002 223.955502 0.000431
0.055505 0.039051 0.000734 0.000002 38.188462 0.000072
0.057321 0.039171 0.000638 0.000002 149.172275 0.000251
0.058687 0.039394 0.000747 0.000002 78.622212 0.000144
0.060165 0.039508 0.000723 0.000002 84.920069 0.000157
0.061600 0.039411 0.000715 0.000002 174.935927 0.000315
0.063216 0.039287 0.000718 0.000002 107.030982 0.000209
0.064628 0.039557 0.000720 0.000002 159.704266 0.000306
0.066053 0.039025 0.000802 0.000002 75.216473 0.000161
0.067750 0.039424 0.000580 0.000002 95.438292 0.000159
0.069152 0.039680 0.000645 0.000002 141.961740 0.000229
0.070493 0.039841 0.000674 0.000002 73.101585 0.000120
0.071889 0.039988 0.000730 0.000002 159.268738 0.000284
0.073292 0.040155 0.000683 0.000002 5.433339 0.000010
0.074699 0.040401 0.000745 0.000002 172.695911 0.000306
0.076074 0.040444 0.000631 0.000002 20.122437 0.000033
0.077293 0.040782 0.000634 0.000002 149.008982 0.000236
0.078375 0.041443 0.000634 0.000002 169.840692 0.000281
0.079571 0.040910 0.000675 0.000002 4.979105 0.000010
0.081021 0.040696 0.000792 0.000002 80.193905 0.000170
0.082554 0.040332 0.000784 0.000002 97.878234 0.000212
0.084067 0.040090 0.000749 0.000002 117.074501 0.000226
0.085518 0.039636 0.000771 0.000002 7.288789 0.000014
0.087056 0.039487 0.000773 0.000002 152.742121 0.000299
0.089503 0.040297 0.000739 0.000002 76.133318 0.000133
0.090804 0.039920 0.000615 0.000002 0.000000 0.000000
0.092117 0.039890 0.000681 0.000002 114.148337 0.000212
0.093880 0.039754 0.000745 0.000002 137.525158 0.000263
0.095240 0.040027 0.000642 0.000002 103.927075 0.000181
0.096632 0.040120 0.000752 0.000002 102.767158 0.000193
0.097916 0.040392 0.000555 0.000002 70.581784 0.000108
0.099017 0.039801 0.000690 0.000002 61.575802 0.000111
0.100356 0.040309 0.000742 0.000002 108.101841 0.000234
0.101879 0.039545 0.000700 0.000002 0.000000 0.000000
0.103248 0.040508 0.000810 0.000002 195.467520 0.000427
0.104797 0.040036 0.000748 0.000002 -0.005104 -0.000000
0.106362 0.040018 0.000817 0.000002 62.420250 0.000130
0.107978 0.040005 0.000766 0.000002 97.971726 0.000199
0.109533 0.040017 0.000789 0.000002 57.698644 0.000119
0.111074 0.039846 0.000762 0.000002 146.360958 0.000311
0.112417 0.040574 0.000766 0.000002 130.673555 0.000274
0.113951 0.040280 0.000796 0.000002 70.425343 0.000154
0.115594 0.040409 0.000668 0.000002 0.000000 0.000000
0.117062 0.040702 0.000791 0.000002 96.862395 0.000207
0.118521 0.041173 0.000741 0.000002 139.415933 0.000274
0.119539 0.040054 0.000772 0.000002 43.792693 0.000083
0.121094 0.040367 0.000815 0.000002 56.075365 0.000123
0.123079 0.040073 0.000773 0.000002 189.647917 0.000407
0.124582 0.039895 0.000741 0.000002 0.000000 0.000000
0.126235 0.040134 0.000676 0.000002 50.821536 0.000086
0.127602 0.040223 0.000681 0.000002 119.713776 0.000216
0.129456 0.040230 0.000691 0.000002 19.151193 0.000038
0.131262 0.040153 0.000668 0.000002 109.804516 0.000187
0.132565 0.040307 0.000643 0.000002 111.092961 0.000211
0.134351 0.040186 0.000737 0.000002 22.833350 0.000045
0.135818 0.039934 0.000673 0.000002 24.396286 0.000042
0.137669 0.039988 0.000722 0.000002 180.831183 0.000329
0.139186 0.039875 0.000680 0.000002 18.467802 0.000033
0.140598 0.040001 0.000737 0.000002 100.130545 0.000185
0.142105 0.040017 0.000770 0.000002 17.030921 0.000033
0.143485 0.039670 0.000608 0.000002 14.159857 0.000026
0.144870 0.039408 0.000802 0.000002 111.279289 0.000237
0.146786 0.039089 0.000758 0.000002 105.643869 0.000214
0.148122 0.038872 0.000596 0.000002 0.000000 0.000000
0.149542 0.038878 0.000722 0.000002 57.447756 0.000107
0.151170 0.038986 0.000586 0.000002 99.212285 0.000168
0.151925 0.038022 0.000638 0.000002 42.448405 0.000064
0.154055 0.038373 0.000679 0.000002 15.126129 0.000026
0.155421 0.038052 0.000725 0.000002 22.002930 0.000042
0.157726 0.036615 0.000697 0.000002 193.298207 0.000380
0.159221 0.036412 0.000684 0.000002 0.000000 0.000000
0.160616 0.036452 0.000650 0.000001 144.531397 0.000211
0.162013 0.036545 0.000743 0.000002 102.567614 0.000182
0.164535 0.036861 0.000694 0.000002 19.449340 0.000039
0.165514 0.035872 0.000697 0.000002 46.408180 0.000098
0.167583 0.035747 0.000838 0.000002 42.286312 0.000101
0.169324 0.036756 0.000635 0.000002 46.408761 0.000098
0.170400 0.036026 0.000587 0.000002 0.000000 0.000000
0.172046 0.035362 0.000663 0.000002 6.731668 0.000011
0.174160 0.035379 0.000511 0.000001 89.011465 0.000128
0.175639 0.035696 0.000710 0.000002 25.701202 0.000047
0.177711 0.035267 0.000732 0.000002 0.000000 0.000000
0.179086 0.034681 0.000762 0.000002 0.000000 0.000000
0.181539 0.034949 0.000597 0.000002 12.592253 0.000022
0.184326 0.033645 0.000810 0.000002 0.000000 0.000000
0.185544 0.032714 0.000720 0.000002 0.000000 0.000000
0.188370 0.033374 0.000663 0.000002 0.000000 0.000000
0.188575 0.031960 0.000620 0.000002 0.000000 0.000000
0.191241 0.032175 0.000781 0.000002 689.433425 0.001427
0.195035 0.031433 0.000683 0.000002 35.354329 0.000080
0.196952 0.030536 0.000700 0.000002 0.000000 0.000000
0.200620 0.028534 0.000727 0.000002 0.000000 0.000000
0.201819 0.026002 0.000814 0.000002 0.000000 0.000000
0.203974 0.025337 0.000603 0.000002 0.000000 0.000000
0.207063 0.025598 0.000827 0.000002 0.000000 0.000000
0.210210 0.025292 0.000640 0.000002 71.866710 0.000123
0.211468 0.025565 0.000614 0.000002 0.000000 0.000000
0.213970 0.025534 0.000621 0.000002 0.000000 0.000000
0.214137 0.024137 0.000785 0.000002 0.000000 0.000000
0.219087 0.022672 0.000673 0.000002 0.000000 0.000000
0.224382 0.022934 0.000746 0.000000 0.000000 0.000000
0.228522 0.020253 0.000749 0.000002 0.000000 0.000000
0.231980 0.018361 0.000561 0.000002 0.000000 0.000000
0.234588 0.018618 0.000661 0.000002 0.000000 0.000000
0.235340 0.017422 0.000747 0.000002 0.000000 0.000000
0.239667 0.017593 0.000644 0.000002 3.154876 0.000007
0.243636 0.016721 0.000716 0.000002 0.000000 0.000000
0.244992 0.016256 0.000711 0.000002 10.718178 0.000020
0.246309 0.015763 0.000688 0.000002 0.000000 0.000000
0.246763 0.014445 0.000700 0.000002 0.000000 0.000000
0.249821 0.011330 0.000708 0.000002 598.792249 0.001169
0.251234 0.011034 0.000649 0.000002 0.000000 0.000000
0.253588 0.012382 0.000805 0.000002 0.000000 0.000000
0.255546 0.010359 0.000622 0.000002 0.000000 0.000000
0.259854 0.010032 0.000649 0.000002 251.521278 0.000474
0.265439 0.010616 0.000542 0.000002 -1.486548 -0.000003
0.271832 0.009866 0.000771 0.000003 0.000000 0.000000
0.273075 0.007255 0.000729 0.000002 0.000000 0.000000
0.274972 0.008215 0.000739 0.000003 0.000000 0.000000
0.255959 0.014683 0.000828 0.000000 0.000000 0.000000
0.000675 0.042916 0.000675 0.000002 38.109895 0.000072
0.001992 0.041909 0.000591 0.000002 6.648733 0.000012
0.003211 0.042532 0.000778 0.000002 23.631490 0.000049
0.004635 0.041438 0.000770 0.000002 10.019071 0.000022
0.005948 0.040681 0.000734 0.000002 0.000000 0.000000
0.007154 0.041537 0.000722 0.000002 112.480605 0.000216
0.008381 0.040969 0.000631 0.000002 78.494152 0.000127
0.011645 0.041595 0.000711 0.000002 34.893867 0.000059
0.012914 0.041514 0.000561 0.000001 88.540489 0.000122
0.013955 0.042048 0.000609 0.000002 86.034695 0.000130
0.015176 0.041569 0.000703 0.000002 52.370805 0.000094
0.017439 0.042367 0.000766 0.000002 97.481511 0.000199
0.018890 0.041733 0.000818 0.000002 37.521791 0.000076
0.020328 0.041282 0.000688 0.000002 0.000000 0.000000
0.021385 0.042361 0.000776 0.000002 80.129996 0.000159
0.022854 0.041739 0.000706 0.000002 61.942489 0.000112
0.024146 0.041259 0.000673 0.000002 136.288074 0.000208
0.025198 0.042050 0.000643 0.000002 0.115891 0.000000
0.026492 0.042150 0.000654 0.000002 31.342775 0.000054
0.027763 0.041787 0.000668 0.000002 104.132781 0.000189
0.029184 0.042048 0.000777 0.000002 47.204674 0.000089
0.030635 0.041874 0.000684 0.000002 0.000000 0.000000
0.031989 0.041811 0.000671 0.000002 67.663212 0.000127
0.033476 0.041738 0.000818 0.000002 137.184664 0.000287
0.035015 0.041580 0.000730 0.000002 11.940463 0.000026
0.036409 0.042137 0.000771 0.000002 67.373956 0.000141
0.037767 0.042255 0.000591 0.000002 25.676838 0.000043
0.039066 0.042115 0.000715 0.000002 106.919030 0.000194
0.040284 0.041499 0.000650 0.000002 1.019250 0.000002
0.041691 0.041286 0.000774 0.000002 160.295240 0.000309
0.043005 0.040888 0.000599 0.000002 0.000000 0.000000
0.044522 0.040537 0.000699 0.000002 73.402063 0.000129
0.045905 0.040359 0.000695 0.000002 115.665177 0.000207
0.047030 0.041313 0.000780 0.000002 81.364906 0.000164
0.048428 0.041736 0.000681 0.000002 99.019383 0.000176
0.049724 0.041247 0.000705 0.000002 75.041285 0.000141
0.050920 0.041999 0.000709 0.000002 22.129159 0.000046
0.052572 0.041263 0.000689 0.000002 11.177659 0.000023
0.053957 0.041020 0.000711 0.000002 146.601805 0.000274
0.055211 0.040497 0.000648 0.000002 24.493186 0.000040
0.056420 0.040070 0.000635 0.000002 93.750894 0.000152
0.057654 0.040386 0.000622 0.000002 72.720637 0.000122
0.059353 0.040694 0.000714 0.000002 100.988208 0.000203
0.060970 0.040645 0.000670 0.000002 20.869738 0.000039
0.062503 0.040624 0.000798 0.000002 189.860989 0.000374
0.063964 0.040779 0.000671 0.000002 16.313167 0.000029
0.065291 0.040763 0.000657 0.000002 107.921015 0.000186
0.066670 0.040455 0.000757 0.000002 4.176525 0.000008
0.068177 0.040706 0.000771 0.000002 77.659537 0.000146
0.069650 0.040954 0.000723 0.000002 153.642102 0.000270
0.071062 0.041160 0.000704 0.000002 120.335109 0.000204
0.072459 0.041299 0.000699 0.000002 7.229097 0.000013
0.073860 0.041626 0.000739 0.000002 118.388615 0.000225
0.075463 0.041628 0.000700 0.000002 1.620358 0.000003
0.076785 0.041980 0.000667 0.000002 40.775790 0.000072
0.077924 0.042651 0.000655 0.000002 64.363929 0.000111
0.079338 0.042427 0.000743 0.000002 47.889983 0.000088
0.080696 0.042104 0.000653 0.000002 1.728959 0.000003
0.082111 0.041837 0.000786 0.000002 112.710728 0.000227
0.083620 0.041526 0.000755 0.000002 32.394698 0.000066
0.085069 0.041001 0.000605 0.000002 0.153043 0.000000
0.086411 0.040861 0.000744 0.000002 83.752046 0.000165
0.088069 0.040580 0.000716 0.000002 134.863740 0.000259
0.090340 0.041420 0.000662 0.000002 39.688318 0.000068
0.091744 0.041270 0.000749 0.000002 77.034253 0.000144
0.093149 0.040984 0.000686 0.000002 60.861917 0.000111
0.094439 0.040982 0.000604 0.000002 53.862568 0.000086
0.095740 0.041315 0.000739 0.000002 77.301186 0.000148
0.097225 0.041508 0.000758 0.000002 82.633637 0.000156
0.098893 0.041192 0.000707 0.000002 39.778877 0.000075
0.100246 0.041840 0.000793 0.000002 58.337239 0.000134
0.101721 0.041045 0.000809 0.000002 0.000000 0.000000
0.102974 0.042033 0.000740 0.000002 89.882195 0.000172
0.104396 0.041512 0.000716 0.000002 38.152245 0.000072
0.105775 0.041383 0.000669 0.000002 9.113311 0.000017
0.107230 0.041366 0.000787 0.000002 67.400149 0.000128
0.108727 0.041192 0.000637 0.000002 7.844969 0.000015
0.110487 0.041327 0.000832 0.000002 79.473539 0.000174
0.111895 0.041955 0.000709 0.000002 49.852860 0.000091
0.113195 0.041713 0.000613 0.000002 53.743371 0.000100
0.114594 0.041725 0.000786 0.000002 20.409016 0.000044
0.116155 0.042009 0.000801 0.000002 72.583284 0.000156
0.117615 0.042272 0.000683 0.000002 30.415964 0.000060
0.119053 0.042530 0.000716 0.000002 17.553295 0.000031
0.119898 0.041442 0.000662 0.000002 6.601198 0.000012
0.121174 0.041861 0.000682 0.000002 97.623309 0.000169
0.122437 0.041369 0.000674 0.000002 64.336252 0.000129
0.123885 0.041313 0.000706 0.000002 52.850539 0.000103
0.125301 0.041168 0.000718 0.000002 0.000000 0.000000
0.126842 0.041289 0.000628 0.000002 75.131715 0.000123
0.128518 0.041246 0.000691 0.000002 50.920438 0.000096
0.130419 0.041205 0.000680 0.000002 37.780486 0.000069
0.131798 0.041431 0.000717 0.000002 76.835364 0.000135
0.133460 0.041438 0.000799 0.000002 22.494172 0.000047
0.135326 0.041154 0.000636 0.000002 0.216124 0.000000
0.136675 0.041030 0.000718 0.000002 93.931456 0.000179
0.138289 0.041258 0.000691 0.000002 63.265226 0.000119
0.139721 0.041194 0.000743 0.000002 8.482185 0.000017
0.141305 0.041332 0.000769 0.000002 30.942452 0.000069
0.143235 0.040950 0.000696 0.000002 0.000000 0.000000
0.144624 0.040843 0.000655 0.000002 58.683098 0.000108
0.146063 0.040444 0.000778 0.000002 79.561421 0.000159
0.147566 0.040336 0.000714 0.000002 42.253336 0.000078
0.149021 0.040249 0.000744 0.000002 0.000000 0.000000
0.150398 0.039963 0.000659 0.000002 64.220727 0.000124
0.152856 0.038859 0.000615 0.000002 72.591024 0.000124
0.154956 0.039320 0.000626 0.000002 7.882907 0.000013
0.156999 0.037986 0.000854 0.000002 112.079982 0.000247
0.158631 0.037792 0.000787 0.000002 2.230488 0.000005
0.159923 0.037437 0.000554 0.000001 26.670123 0.000039
0.161157 0.037586 0.000606 0.000002 184.833801 0.000293
0.163218 0.037623 0.000810 0.000002 14.091899 0.000031
0.165444 0.037885 0.000674 0.000002 65.156544 0.000130
0.166512 0.036931 0.000758 0.000002 45.508965 0.000097
0.168015 0.037339 0.000799 0.000002 3.869165 0.000009
0.170410 0.037724 0.000820 0.000002 2.461180 0.000005
0.171536 0.036612 0.000687 0.000002 0.000000 0.000000
0.173183 0.035899 0.000595 0.000002 0.000000 0.000000
0.174481 0.036622 0.000772 0.000002 36.140196 0.000064
0.176847 0.036384 0.000680 0.000002 29.456236 0.000051
0.178859 0.036121 0.000695 0.000002 0.000000 0.000000
0.180358 0.035191 0.000607 0.000002 0.000000 0.000000
0.182963 0.034477 0.000762 0.000002 0.000000 0.000000
0.185803 0.034130 0.000719 0.000002 42.735771 0.000083
0.187140 0.034018 0.000620 0.000002 0.000000 0.000000
0.189819 0.032960 0.000843 0.000002 0.000000 0.000000
0.192534 0.033039 0.000770 0.000002 38.272071 0.000077
0.193834 0.032232 0.000760 0.000003 0.000000 0.000000
0.196378 0.031832 0.000717 0.000000 0.000000 0.000000
0.200106 0.029900 0.000727 0.000000 0.000000 0.000000
0.201075 0.027247 0.000637 0.000002 0.000000 0.000000
0.205764 0.026351 0.000673 0.000002 0.000000 0.000000
0.208254 0.026518 0.000678 0.000002 0.000000 0.000000
0.209743 0.026672 0.000817 0.000002 0.000000 0.000000
0.212915 0.026548 0.000830 0.000000 0.000000 0.000000
0.215640 0.024612 0.000747 0.000000 0.000000 0.000000
0.216660 0.023443 0.000620 0.000000 0.000000 0.000000
0.217858 0.022030 0.000636 0.000002 0.000000 0.000000
0.220374 0.022283 0.000668 0.000002 0.000000 0.000000
0.227357 0.021155 0.000723 0.000003 0.000000 0.000000
0.231619 0.019642 0.000771 0.000002 2.194919 0.000005
0.235561 0.020149 0.000776 0.000000 0.000000 0.000000
0.236751 0.017440 0.000663 0.000002 0.000000 0.000000
0.238178 0.017132 0.000656 0.000002 0.000000 0.000000
0.244679 0.017617 0.000655 0.000002 0.000000 0.000000
0.246087 0.017108 0.000676 0.000002 0.000000 0.000000
0.249269 0.015156 0.000673 0.000002 0.000000 0.000000
0.249859 0.013967 0.000651 0.000002 144.130396 0.000270
0.249818 0.012639 0.000600 0.000002 0.000000 0.000000
0.252090 0.011930 0.000586 0.000002 0.000000 0.000000
0.252279 0.013289 0.000779 0.000002 0.000000 0.000000
0.259317 0.011274 0.000705 0.000002 66.571833 0.000142
0.262301 0.010936 0.000708 0.000002 0.000000 0.000000
0.266826 0.010518 0.000848 0.000003 0.000000 0.000000
0.267423 0.009048 0.000731 0.000002 0.000000 0.000000
0.273570 0.008612 0.000710 0.000002 0.000000 0.000000
0.265854 0.013564 0.000716 0.000000 0.000000 0.000000
0.000776 0.044272 0.000684 0.000002 0.000000 0.000000
0.001999 0.043490 0.000767 0.000002 0.000000 0.000000
0.003456 0.044025 0.000735 0.000003 2.121005 0.000007
0.004649 0.043106 0.000771 0.000002 27.248871 0.000062
0.005892 0.042260 0.000732 0.000002 0.000000 0.000000
0.008548 0.042285 0.000696 0.000002 30.272940 0.000060
0.010030 0.041863 0.000845 0.000002 54.189148 0.000106
0.012487 0.042563 0.000572 0.000001 58.379225 0.000081
0.013488 0.043151 0.000589 0.000002 0.000000 0.000000
0.014847 0.043056 0.000738 0.000002 70.987589 0.000118
0.016077 0.042517 0.000605 0.000002 32.998904 0.000056
0.016726 0.043633 0.000687 0.000002 32.283902 0.000055
0.018635 0.043285 0.000742 0.000002 70.669258 0.000142
0.019978 0.042781 0.000693 0.000002 3.559876 0.000007
0.020945 0.043728 0.000660 0.000002 15.883409 0.000033
0.022686 0.043217 0.000782 0.000002 88.745300 0.000193
0.023920 0.042538 0.000626 0.000002 51.492847 0.000088
0.024923 0.043402 0.000698 0.000002 37.541986 0.000066
0.026298 0.043467 0.000678 0.000002 36.392060 0.000067
0.027599 0.043116 0.000670 0.000002 41.522591 0.000071
0.028818 0.043343 0.000570 0.000002 28.348596 0.000044
0.030044 0.043204 0.000664 0.000002 0.977977 0.000002
0.031406 0.043059 0.000706 0.000002 36.284000 0.000065
0.032878 0.043211 0.000773 0.000002 50.891923 0.000103
0.034394 0.043016 0.000756 0.000002 5.036493 0.000012
0.035792 0.043499 0.000723 0.000002 51.876997 0.000103
0.037205 0.043410 0.000693 0.000002 0.063180 0.000000
0.038532 0.043355 0.000635 0.000002 36.080397 0.000061
0.039887 0.043219 0.000660 0.000002 37.132159 0.000071
0.041302 0.042821 0.000810 0.000002 35.496535 0.000076
0.042891 0.042336 0.000820 0.000002 45.463185 0.000093
0.044349 0.041922 0.000696 0.000002 23.306477 0.000041
0.045658 0.041669 0.000637 0.000002 44.187219 0.000074
0.046596 0.042670 0.000645 0.000002 37.312343 0.000063
0.047872 0.042960 0.000663 0.000002 33.831904 0.000066
0.049515 0.042730 0.000793 0.000002 35.969714 0.000075
0.050869 0.043539 0.000785 0.000002 12.255818 0.000029
0.052257 0.042737 0.000818 0.000002 37.333714 0.000077
0.053645 0.042324 0.000630 0.000002 67.061360 0.000123
0.055397 0.041673 0.000542 0.000002 0.035387 0.000000
0.056732 0.041477 0.000807 0.000002 43.471783 0.000080
0.058241 0.041575 0.000705 0.000002 87.769643 0.000167
0.060239 0.041907 0.000789 0.000002 45.067365 0.000095
0.061732 0.041913 0.000704 0.000002 85.622359 0.000156
0.063198 0.041959 0.000707 0.000002 49.586496 0.000087
0.064658 0.042024 0.000755 0.000002 46.767486 0.000087
0.066121 0.041696 0.000592 0.000002 24.544522 0.000041
0.067367 0.041896 0.000669 0.000002 46.790537 0.000085
0.068808 0.042237 0.000812 0.000002 58.315201 0.000115
0.070215 0.042146 0.000596 0.000002 53.078836 0.000093
0.071646 0.042433 0.000696 0.000002 70.192089 0.000122
0.072987 0.042748 0.000682 0.000002 26.490860 0.000047
0.073695 0.043927 0.000693 0.000002 22.059282 0.000047
0.074525 0.042858 0.000661 0.000002 35.391819 0.000062
0.075863 0.042965 0.000682 0.000002 13.377715 0.000023
0.077046 0.043689 0.000705 0.000002 15.469613 0.000036
0.078748 0.043885 0.000830 0.000003 5.457031 0.000017
0.080287 0.043481 0.000675 0.000002 11.754481 0.000022
0.081702 0.043317 0.000749 0.000002 41.442428 0.000080
0.083108 0.042945 0.000705 0.000002 15.689513 0.000029
0.084550 0.042715 0.000756 0.000002 29.147797 0.000057
0.085999 0.042299 0.000752 0.000002 35.901420 0.000070
0.087481 0.041946 0.000771 0.000002 38.037873 0.000076
0.089000 0.041640 0.000695 0.000002 62.600326 0.000108
0.089875 0.042587 0.000594 0.000002 38.472124 0.000058
0.092757 0.042334 0.000720 0.000002 56.790383 0.000102
0.094218 0.042309 0.000742 0.000002 8.840264 0.000016
0.095593 0.042747 0.000700 0.000002 36.580560 0.000067
0.096961 0.042921 0.000680 0.000002 15.485257 0.000029
0.098304 0.042423 0.000657 0.000002 48.362255 0.000089
0.099495 0.043216 0.000775 0.000002 21.796175 0.000046
0.101579 0.042806 0.000854 0.000002 29.026673 0.000065
0.102895 0.043336 0.000565 0.000001 39.238992 0.000058
0.103971 0.042906 0.000585 0.000002 25.426876 0.000039
0.105247 0.042661 0.000714 0.000002 21.889580 0.000035
0.106563 0.042586 0.000604 0.000002 15.857448 0.000026
0.108059 0.042472 0.000594 0.000002 15.887825 0.000026
0.109360 0.042381 0.000710 0.000002 28.917670 0.000054
0.110836 0.042705 0.000589 0.000002 34.519282 0.000061
0.112087 0.043282 0.000632 0.000002 12.389736 0.000025
0.113541 0.043116 0.000831 0.000002 9.596638 0.000022
0.115123 0.043168 0.000751 0.000002 19.810040 0.000038
0.116589 0.043494 0.000746 0.000002 3.933387 0.000009
0.118081 0.043630 0.000752 0.000003 0.575800 0.000002
0.119454 0.043863 0.000641 0.000003 9.033261 0.000028
0.120369 0.042936 0.000662 0.000002 0.000000 0.000000
0.121686 0.043095 0.000655 0.000002 7.398028 0.000016
0.123100 0.042701 0.000813 0.000002 20.195483 0.000041
0.124703 0.042571 0.000795 0.000002 30.843503 0.000061
0.126164 0.042403 0.000676 0.000002 28.728264 0.000053
0.127656 0.042262 0.000641 0.000002 0.000000 0.000000
0.129500 0.042308 0.000756 0.000002 48.718680 0.000097
0.130943 0.042576 0.000712 0.000002 20.603037 0.000039
0.132554 0.042577 0.000656 0.000002 15.172970 0.000029
0.134623 0.042276 0.000635 0.000002 8.797139 0.000016
0.136032 0.042381 0.000779 0.000002 60.131062 0.000113
0.137500 0.042391 0.000689 0.000002 0.000000 0.000000
0.139008 0.042458 0.000708 0.000002 11.470551 0.000023
0.140491 0.042658 0.000788 0.000004 0.000000 0.000000
0.142537 0.042269 0.000779 0.000004 -0.032452 -0.000000
0.144123 0.042216 0.000807 0.000003 10.164679 0.000026
0.145559 0.041816 0.000684 0.000002 0.000000 0.000000
0.146965 0.041617 0.000702 0.000002 74.510329 0.000129
0.148334 0.041429 0.000622 0.000002 0.000000 0.000000
0.150079 0.041428 0.000839 0.000002 29.312779 0.000073
0.152077 0.040093 0.000845 0.000002 27.559549 0.000059
0.153726 0.039877 0.000724 0.000002 14.882648 0.000030
0.156350 0.039482 0.000777 0.000002 65.716046 0.000136
0.157904 0.039227 0.000682 0.000002 1.799992 0.000004
0.160355 0.038599 0.000686 0.000002 97.815108 0.000178
0.162029 0.038577 0.000715 0.000002 27.987483 0.000054
0.164305 0.038747 0.000754 0.000002 35.102267 0.000072
0.165645 0.039530 0.000797 0.000003 4.973981 0.000016
0.166857 0.038466 0.000816 0.000002 0.236661 0.000001
0.168328 0.038793 0.000688 0.000002 0.000000 0.000000
0.169636 0.038950 0.000629 0.000002 0.000000 0.000000
0.171927 0.038190 0.000767 0.000002 5.313522 0.000012
0.173061 0.037215 0.000727 0.000002 0.000000 0.000000
0.174182 0.038008 0.000645 0.000002 0.000000 0.000000
0.175763 0.036997 0.000564 0.000002 0.000000 0.000000
0.177961 0.037155 0.000674 0.000002 69.921315 0.000155
0.180171 0.036436 0.000651 0.000003 0.000000 0.000000
0.181963 0.036160 0.000687 0.000005 0.000000 0.000000
0.184776 0.035116 0.000704 0.000000 0.000000 0.000000
0.189395 0.034485 0.000740 0.000005 0.000000 0.000000
0.191194 0.033647 0.000692 0.000003 163.957952 0.000410
0.192288 0.034459 0.000671 0.000004 0.000000 0.000000
0.193695 0.034006 0.000736 0.000003 -1.061611 -0.000003
0.195099 0.034259 0.000691 0.000000 0.000000 0.000000
0.198621 0.030975 0.000811 0.000000 0.000000 0.000000
0.202114 0.028135 0.000727 0.000003 29.451678 0.000098
0.204399 0.026581 0.000710 0.000002 0.000000 0.000000
0.206988 0.027148 0.000724 0.000003 0.000000 0.000000
0.208329 0.027935 0.000735 0.000000 0.000000 0.000000
0.211296 0.026911 0.000740 0.000000 0.000000 0.000000
0.209675 0.028249 0.000641 0.000000 0.000000 0.000000
0.214560 0.026851 0.000806 0.000000 0.000000 0.000000
0.217924 0.023315 0.000650 0.000003 0.000000 0.000000
0.221965 0.023099 0.000719 0.000000 0.000000 0.000000
0.227643 0.022537 0.000686 0.000000 0.000000 0.000000
0.231055 0.020957 0.000660 0.000000 0.000000 0.000000
0.234022 0.019938 0.000773 0.000000 0.000000 0.000000
0.236116 0.018715 0.000761 0.000002 0.000000 0.000000
0.241710 0.018786 0.000640 0.000000 0.000000 0.000000
0.242449 0.017568 0.000741 0.000002 24.676002 0.000052
0.245645 0.018410 0.000581 0.000000 0.000000 0.000000
0.247966 0.015042 0.000634 0.000002 0.000000 0.000000
0.251416 0.014574 0.000763 0.000002 0.000000 0.000000
0.250890 0.013242 0.000610 0.000002 48.744218 0.000075
0.250806 0.012119 0.000516 0.000001 0.000000 0.000000
0.253555 0.014160 0.000758 0.000003 0.000000 0.000000
0.257771 0.011166 0.000709 0.000002 0.000000 0.000000
0.260723 0.012997 0.000742 0.000004 0.000000 0.000000
0.260894 0.011457 0.000790 0.000002 0.000000 0.000000
0.265168 0.011869 0.000722 0.000003 0.000000 0.000000
0.267188 0.013825 0.000641 0.000000 0.000000 0.000000
0.269739 0.009747 0.000784 0.000002 0.000000 0.000000
0.264400 0.013681 0.000739 0.000000 0.000000 0.000000
0.005891 0.043943 0.000725 0.000004 2.969467 0.000013
0.007234 0.043111 0.000854 0.000003 2.171864 0.000006
0.008709 0.043709 0.000738 0.000004 0.608532 0.000003
0.009900 0.043243 0.000541 0.000002 9.119014 0.000016
0.011141 0.042847 0.000639 0.000002 24.430457 0.000039
0.012097 0.043745 0.000672 0.000002 33.737002 0.000052
0.014330 0.044330 0.000638 0.000002 0.639406 0.000002
0.015562 0.044189 0.000603 0.000002 3.909188 0.000007
0.016540 0.044935 0.000628 0.000002 0.000000 0.000000
0.017818 0.044431 0.000665 0.000002 0.000000 0.000000
0.019180 0.044632 0.000711 0.000003 1.657187 0.000004
0.020549 0.045053 0.000722 0.000002 1.048348 0.000002
0.022098 0.044746 0.000856 0.000003 0.000000 0.000000
0.023772 0.044423 0.000840 0.000003 0.000000 0.000000
0.025210 0.044674 0.000605 0.000002 0.329852 0.000001
0.026547 0.044869 0.000745 0.000002 0.664709 0.000002
0.027973 0.044471 0.000735 0.000003 0.004017 0.000000
0.029401 0.044463 0.000693 0.000003 0.092920 0.000000
0.030827 0.044379 0.000736 0.000003 0.011294 0.000000
0.032166 0.044390 0.000603 0.000003 0.000000 0.000000
0.033526 0.044618 0.000776 0.000003 0.151494 0.000000
0.035052 0.044781 0.000758 0.000003 0.000000 0.000000
0.036521 0.044734 0.000711 0.000003 0.044345 0.000000
0.037981 0.044629 0.000752 0.000003 0.017441 0.000000
0.039539 0.044643 0.000805 0.000003 -0.078600 -0.000000
0.040985 0.044282 0.000686 0.000003 0.000000 0.000000
0.042475 0.043850 0.000750 0.000003 1.684488 0.000005
0.044028 0.043163 0.000586 0.000002 21.666222 0.000037
0.045287 0.042945 0.000692 0.000002 46.441856 0.000080
0.046705 0.044009 0.000697 0.000003 -0.047231 -0.000000
0.048121 0.044364 0.000762 0.000004 -0.071296 -0.000000
0.049560 0.044207 0.000685 0.000004 0.000000 0.000000
0.052172 0.044254 0.000701 0.000005 0.121146 0.000001
0.053591 0.043755 0.000802 0.000004 0.000000 0.000000
0.054851 0.042885 0.000700 0.000002 18.469031 0.000031
0.056159 0.042777 0.000613 0.000002 10.737327 0.000017
0.057511 0.042821 0.000739 0.000002 24.620408 0.000044
0.058999 0.042817 0.000749 0.000002 29.182592 0.000060
0.061064 0.043164 0.000714 0.000002 48.362297 0.000097
0.062427 0.043067 0.000643 0.000002 29.027947 0.000049
0.063771 0.043194 0.000654 0.000002 6.869139 0.000011
0.065110 0.043408 0.000702 0.000002 32.394708 0.000059
0.066471 0.042970 0.000729 0.000002 25.491721 0.000046
0.067826 0.043363 0.000682 0.000002 18.264948 0.000034
0.069144 0.043680 0.000670 0.000003 0.072770 0.000000
0.070591 0.043480 0.000790 0.000002 22.356457 0.000046
0.072058 0.043751 0.000685 0.000002 34.741323 0.000063
0.072738 0.045062 0.000792 0.000003 0.000000 0.000000
0.075078 0.044102 0.000701 0.000003 6.962676 0.000019
0.076286 0.044981 0.000793 0.000000 0.000000 0.000000
0.079946 0.044774 0.000662 0.000003 -0.004114 -0.000000
0.081354 0.044771 0.000746 0.000003 0.000000 0.000000
0.082769 0.044332 0.000723 0.000003 0.029253 0.000000
0.084079 0.044014 0.000626 0.000003 0.000000 0.000000
0.085607 0.043652 0.000656 0.000004 0.000000 0.000000
0.087019 0.043373 0.000729 0.000002 8.673108 0.000020
0.088556 0.042998 0.000734 0.000002 29.206245 0.000053
0.089651 0.043759 0.000599 0.000002 21.224862 0.000034
0.091165 0.042595 0.000696 0.000002 23.792704 0.000043
0.093485 0.043416 0.000585 0.000001 23.391749 0.000035
0.094681 0.043752 0.000657 0.000002 0.988041 0.000002
0.096146 0.044020 0.000688 0.000004 0.000000 0.000000
0.098068 0.043780 0.000721 0.000003 3.856120 0.000011
0.099162 0.044592 0.000641 0.000000 0.000000 0.000000
0.100698 0.044126 0.000733 0.000003 0.163243 0.000000
0.102072 0.044221 0.000644 0.000002 0.000000 0.000000
0.103470 0.044516 0.000748 0.000002 0.779242 0.000002
0.104689 0.043881 0.000626 0.000002 -0.011364 -0.000000
0.106030 0.043857 0.000715 0.000003 0.854504 0.000003
0.107398 0.043566 0.000684 0.000003 0.300664 0.000001
0.108783 0.043673 0.000705 0.000003 0.860155 0.000003
0.110226 0.043903 0.000756 0.000003 2.732404 0.000007
0.111539 0.044464 0.000671 0.000003 0.000000 0.000000
0.114364 0.044318 0.000626 0.000002 0.000000 0.000000
0.115632 0.044360 0.000545 0.000002 0.000000 0.000000
0.122558 0.044041 0.000633 0.000003 0.000000 0.000000
0.124020 0.043897 0.000696 0.000002 0.000000 0.000000
0.125547 0.043805 0.000700 0.000003 0.137488 0.000000
0.127041 0.043600 0.000808 0.000003 -0.133927 -0.000000
0.128579 0.043480 0.000734 0.000003 0.000000 0.000000
0.130033 0.043703 0.000737 0.000003 0.000000 0.000000
0.131796 0.043732 0.000725 0.000003 0.000000 0.000000
0.133741 0.043367 0.000769 0.000003 0.195611 0.000001
0.135191 0.043597 0.000700 0.000003 0.000000 0.000000
0.136833 0.043733 0.000793 0.000002 0.141469 0.000000
0.138236 0.043542 0.000622 0.000003 0.000000 0.000000
0.145161 0.043278 0.000679 0.000003 1.803924 0.000005
0.146460 0.042898 0.000675 0.000002 0.000000 0.000000
0.147883 0.042663 0.000689 0.000002 0.827085 0.000002
0.149338 0.042867 0.000780 0.000003 0.000000 0.000000
0.151629 0.041591 0.000719 0.000004 0.000000 0.000000
0.153173 0.041218 0.000726 0.000003 -0.037358 -0.000000
0.155363 0.040586 0.000704 0.000002 19.246397 0.000040
0.158378 0.040473 0.000651 0.000002 64.375855 0.000136
0.159267 0.039455 0.000699 0.000002 0.000000 0.000000
0.161183 0.039749 0.000731 0.000002 3.229446 0.000007
0.163091 0.039371 0.000611 0.000002 51.398080 0.000100
0.164180 0.040347 0.000851 0.000004 0.000000 0.000000
0.167437 0.039896 0.000727 0.000003 0.000000 0.000000
0.168920 0.040164 0.000780 0.000003 0.000000 0.000000
0.170970 0.039404 0.000778 0.000003 0.000000 0.000000
0.173195 0.038906 0.000689 0.000003 0.000000 0.000000
0.175505 0.038224 0.000689 0.000003 0.000000 0.000000
0.176766 0.037700 0.000638 0.000003 0.000000 0.000000
0.179323 0.037816 0.000839 0.000000 0.000000 0.000000
0.183530 0.035894 0.000764 0.000005 0.000000 0.000000
0.186651 0.035366 0.000779 0.000004 0.000000 0.000000
0.187889 0.036250 0.000740 0.000004 0.000000 0.000000
0.201614 0.029499 0.000651 0.000000 0.000000 0.000000
0.203014 0.026988 0.000731 0.000003 0.000000 0.000000
0.205480 0.027740 0.000745 0.000000 0.000000 0.000000
0.219340 0.024047 0.000719 0.000000 0.000000 0.000000
0.226316 0.023128 0.000729 0.000000 0.000000 0.000000
0.229514 0.021342 0.000692 0.000000 0.000000 0.000000
0.230004 0.020044 0.000624 0.000002 0.000000 0.000000
0.232699 0.020757 0.000780 0.000000 0.000000 0.000000
0.238964 0.018625 0.000605 0.000000 0.000000 0.000000
0.243583 0.018511 0.000734 0.000006 0.000000 0.000000
0.247613 0.016293 0.000665 0.000003 0.000000 0.000000
0.250529 0.015777 0.000730 0.000000 0.000000 0.000000
0.254788 0.013470 0.000631 0.000002 0.000000 0.000000
0.252679 0.015424 0.000712 0.000000 0.000000 0.000000
0.255871 0.012524 0.000734 0.000002 0.000000 0.000000
0.256436 0.011281 0.000566 0.000002 0.000000 0.000000
0.258499 0.012525 0.000790 0.000003 0.000000 0.000000
0.262976 0.013452 0.000658 0.000000 0.000000 0.000000
0.263626 0.012046 0.000651 0.000002 0.000000 0.000000
0.259733 0.014101 0.000721 0.000000 0.000000 0.000000
0.268780 0.008586 0.000702 0.000002 0.000000 0.000000
0.257917 0.014320 0.000682 0.000000 0.000000 0.000000
0.010762 0.044116 0.000686 0.000003 0.688869 0.000002
0.011730 0.044962 0.000600 0.000002 0.000000 0.000000
0.013087 0.044595 0.000634 0.000002 0.000000 0.000000
0.043788 0.044399 0.000673 0.000003 -0.009303 -0.000000
0.045236 0.044412 0.000775 0.000003 0.000000 0.000000
0.055452 0.043998 0.000565 0.000000 0.000000 0.000000
0.056673 0.043940 0.000658 0.000003 0.000000 0.000000
0.058249 0.043954 0.000613 0.000004 0.000000 0.000000
0.059871 0.044095 0.000798 0.000004 0.000000 0.000000
0.061526 0.044605 0.000799 0.000004 -0.009393 -0.000000
0.062978 0.044279 0.000689 0.000003 0.768598 0.000002
0.064318 0.044534 0.000674 0.000003 0.000000 0.000000
0.066123 0.044308 0.000654 0.000003 0.670147 0.000002
0.067373 0.044592 0.000627 0.000000 0.000000 0.000000
0.071204 0.044822 0.000685 0.000004 0.000000 0.000000
0.088073 0.044368 0.000719 0.000003 1.684895 0.000006
0.089315 0.044978 0.000665 0.000002 0.000000 0.000000
0.090914 0.043946 0.000678 0.000003 0.214385 0.000001
0.092233 0.043630 0.000678 0.000002 0.000000 0.000000
0.093721 0.044605 0.000627 0.000000 0.000000 0.000000
0.154508 0.041685 0.000689 0.000000 0.000000 0.000000
0.156709 0.040878 0.000664 0.000003 0.000000 0.000000
0.157809 0.041722 0.000722 0.000000 0.000000 0.000000
0.160033 0.040694 0.000757 0.000004 0.000000 0.000000
0.162455 0.040692 0.000852 0.000004 0.000000 0.000000
